# vtk DataFile Version 5.1
vtk output
ASCII
DATASET UNSTRUCTURED_GRID
POINTS 12669 double
-50.1 0 0 -0.1 0 0 0.1 0 0 
25.1 0 0 25.1 10 0 0.1 10 0 
-0.1 10 0 -50.1 10 0 -49.447025829 0 0 
-48.801794431 0 0 -48.164214001 0 0 -47.534193818 0 0 
-46.911644227 0 0 -46.296476648 0 0 -45.688603543 0 0 
-45.087938417 0 0 -44.494395805 0 0 -43.90789125 0 0 
-43.328341294 0 0 -42.755663471 0 0 -42.189776295 0 0 
-41.630599242 0 0 -41.078052747 0 0 -40.532058186 0 0 
-39.992537867 0 0 -39.459415023 0 0 -38.932613793 0 0 
-38.412059219 0 0 -37.897677231 0 0 -37.389394634 0 0 
-36.887139106 0 0 -36.390839174 0 0 -35.900424222 0 0 
-35.415824471 0 0 -34.936970957 0 0 -34.463795547 0 0 
-33.996230916 0 0 -33.534210529 0 0 -33.077668642 0 0 
-32.626540297 0 0 -32.180761299 0 0 -31.740268219 0 0 
-31.304998377 0 0 -30.874889834 0 0 -30.449881395 0 0 
-30.029912583 0 0 -29.614923635 0 0 -29.204855504 0 0 
-28.799649841 0 0 -28.399248992 0 0 -28.00359598 0 0 
-27.612634502 0 0 -27.226308931 0 0 -26.844564298 0 0 
-26.467346282 0 0 -26.094601209 0 0 -25.726276037 0 0 
-25.362318354 0 0 -25.002676375 0 0 -24.647298925 0 0 
-24.296135438 0 0 -23.949135946 0 0 -23.606251074 0 0 
-23.267432028 0 0 -22.932630599 0 0 -22.60179915 0 0 
-22.274890601 0 0 -21.951858437 0 0 -21.632656693 0 0 
-21.317239952 0 0 -21.005563333 0 0 -20.697582484 0 0 
-20.393253579 0 0 -20.092533314 0 0 -19.795378905 0 0 
-19.501748069 0 0 -19.211599017 0 0 -18.924890469 0 0 
-18.641581628 0 0 -18.361632179 0 0 -18.085002288 0 0 
-17.811652595 0 0 -17.541544203 0 0 -17.274638676 0 0 
-17.010898038 0 0 -16.750284759 0 0 -16.492761755 0 0 
-16.238292386 0 0 -15.986840441 0 0 -15.73837014 0 0 
-15.492846127 0 0 -15.250233467 0 0 -15.010497637 0 0 
-14.773604522 0 0 -14.539520416 0 0 -14.308212012 0 0 
-14.079646394 0 0 -13.853791037 0 0 -13.630613808 0 0 
-13.41008295 0 0 -13.192167083 0 0 -12.9768352 0 0 
-12.764056659 0 0 -12.553801187 0 0 -12.346038864 0 0 
-12.140740121 0 0 -11.937875747 0 0 -11.737416881 0 0 
-11.539335 0 0 -11.343601917 0 0 -11.15018978 0 0 
-10.959071065 0 0 -10.770218579 0 0 -10.583605452 0 0 
-10.399205132 0 0 -10.216991374 0 0 -10.03693825 0 0 
-9.8590201479 0 0 -9.683211749 0 0 -9.5094880351 0 0 
-9.3378242827 0 0 -9.1681960658 0 0 -9.0005792535 0 0 
-8.8349499936 0 0 -8.6712847156 0 0 -8.5095601319 0 0 
-8.3497532322 0 0 -8.1918412761 0 0 -8.0358017916 0 0 
-7.8816125772 0 0 -7.7292516959 0 0 -7.5786974644 0 0 
-7.4299284603 0 0 -7.2829235159 0 0 -7.1376617121 0 0 
-6.9941223817 0 0 -6.8522850987 0 0 -6.7121296816 0 0 
-6.5736361876 0 0 -6.4367849066 0 0 -6.3015563697 0 0 
-6.1679313339 0 0 -6.0358907817 0 0 -5.9054159287 0 0 
-5.7764882093 0 0 -5.6490892763 0 0 -5.5232010041 0 0 
-5.3988054792 0 0 -5.2758849997 0 0 -5.1544220747 0 0 
-5.0343994192 0 0 -4.915799958 0 0 -4.7986068166 0 0 
-4.6828033163 0 0 -4.5683729784 0 0 -4.4552995239 0 0 
-4.3435668643 0 0 -4.2331590971 0 0 -4.1240605105 0 0 
-4.016255583 0 0 -3.9097289743 0 0 -3.8044655262 0 0 
-3.7004502618 0 0 -3.5976683776 0 0 -3.4961052517 0 0 
-3.3957464319 0 0 -3.2965776352 0 0 -3.1985847571 0 0 
-3.1017538501 0 0 -3.006071133 0 0 -2.911522996 0 0 
-2.8180959831 0 0 -2.7257767973 0 0 -2.6345523061 0 0 
-2.5444095283 0 0 -2.4553356352 0 0 -2.3673179555 0 0 
-2.2803439674 0 0 -2.1944012905 0 0 -2.1094776961 0 0 
-2.0255611029 0 0 -1.9426395651 0 0 -1.8607012872 0 0 
-1.7797346108 0 0 -1.6997280122 0 0 -1.6206701073 0 0 
-1.5425496489 0 0 -1.4653555233 0 0 -1.3890767423 0 0 
-1.3137024497 0 0 -1.2392219223 0 0 -1.1656245665 0 0 
-1.0928999071 0 0 -1.0210375925 0 0 -0.95002740126 0 0 
-0.87985922981 0 0 -0.81052308986 0 0 -0.74200911888 0 0 
-0.67430756817 0 0 -0.60740880042 0 0 -0.54130330004 0 0 
-0.47598166168 0 0 -0.41143458748 0 0 -0.34765289347 0 0 
-0.28462750229 0 0 -0.22234944532 0 0 -0.16080986428 0 0 
-0.075 0 0 -0.05 0 0 -0.025 0 0 
-2.6574575873e-13 0 0 0.025 0 0 0.05 0 0 
0.075 0 0 0.15779696894 0 0 0.21703886108 0 0 
0.27776180117 0 0 0.340002814 0 0 0.40379985127 0 0 
0.46919181481 0 0 0.53621857657 0 0 0.60492100866 0 0 
0.67534100109 0 0 0.74752148987 0 0 0.82150649092 0 0 
0.89734111706 0 0 0.97507160995 0 0 1.0547453643 0 0 
1.1364109627 0 0 1.2201182027 0 0 1.3059181251 0 0 
1.3938630446 0 0 1.4840065849 0 0 1.5764037133 0 0 
1.6711107699 0 0 1.7681855044 0 0 1.86768711 0 0 
1.9696762586 0 0 2.0742151333 0 0 2.1813674765 0 0 
2.2911986267 0 0 2.4037755563 0 0 2.5191669124 0 0 
2.6374430544 0 0 2.7586760979 0 0 2.8829399663 0 0 
3.0103104305 0 0 3.1408651546 0 0 3.2746837503 0 0 
3.4118478133 0 0 3.5524409773 0 0 3.6965489696 0 0 
3.8442596609 0 0 3.9956631168 0 0 4.1508516574 0 0 
4.3099199146 0 0 4.4729648788 0 0 4.6400859659 0 0 
4.8113850794 0 0 4.9869666698 0 0 5.1669378027 0 0 
5.3514082154 0 0 5.5404903866 0 0 5.7342996132 0 0 
5.9329540737 0 0 6.1365748932 0 0 6.3452862319 0 0 
6.5592153533 0 0 6.7784927017 0 0 7.0032519874 0 0 
7.2336302578 0 0 7.4697679819 0 0 7.7118091476 0 0 
7.9599013412 0 0 8.2141958396 0 0 8.4748477034 0 0 
8.7420158642 0 0 9.0158632266 0 0 9.2965567704 0 0 
9.5842676529 0 0 9.8791713075 0 0 10.181447556 0 0 
10.491280715 0 0 10.8088597 0 0 11.134378158 0 0 
11.468034578 0 0 11.810032411 0 0 12.16058019 0 0 
12.519891663 0 0 12.888185921 0 0 13.265687534 0 0 
13.652626688 0 0 14.049239319 0 0 14.455767267 0 0 
14.872458413 0 0 15.299566839 0 0 15.737352979 0 0 
16.186083771 0 0 16.646032833 0 0 17.117480623 0 0 
17.600714604 0 0 18.096029435 0 0 18.603727139 0 0 
19.124117281 0 0 19.657517178 0 0 20.204252075 0 0 
20.764655347 0 0 21.339068701 0 0 21.927842387 0 0 
22.531335412 0 0 23.149915765 0 0 23.783960627 0 0 
24.433856613 0 0 25.1 0.25 0 25.1 0.5 0 
25.1 0.75 0 25.1 1 0 25.1 1.25 0 
25.1 1.5 0 25.1 1.75 0 25.1 2 0 
25.1 2.25 0 25.1 2.5 0 25.1 2.75 0 
25.1 3 0 25.1 3.25 0 25.1 3.5 0 
25.1 3.75 0 25.1 4 0 25.1 4.25 0 
25.1 4.5 0 25.1 4.75 0 25.1 5 0 
25.1 5.25 0 25.1 5.5 0 25.1 5.75 0 
25.1 6 0 25.1 6.25 0 25.1 6.5 0 
25.1 6.75 0 25.1 7 0 25.1 7.25 0 
25.1 7.5 0 25.1 7.75 0 25.1 8 0 
25.1 8.25 0 25.1 8.5 0 25.1 8.75 0 
25.1 9 0 25.1 9.25 0 25.1 9.5 0 
25.1 9.75 0 24.433856617 10 0 23.78396063 10 0 
23.149915768 10 0 22.531335414 10 0 21.927842388 10 0 
21.339068702 10 0 20.764655347 10 0 20.204252075 10 0 
19.657517177 10 0 19.12411728 10 0 18.603727137 10 0 
18.096029434 10 0 17.600714602 10 0 17.11748062 10 0 
16.64603283 10 0 16.186083768 10 0 15.737352976 10 0 
15.299566836 10 0 14.872458409 10 0 14.455767263 10 0 
14.049239315 10 0 13.652626683 10 0 13.265687529 10 0 
12.888185916 10 0 12.519891657 10 0 12.160580184 10 0 
11.810032405 10 0 11.468034572 10 0 11.134378152 10 0 
10.808859694 10 0 10.491280708 10 0 10.18144755 10 0 
9.8791713011 10 0 9.5842676463 10 0 9.2965567637 10 0 
9.0158632199 10 0 8.7420158574 10 0 8.4748476965 10 0 
8.2141958327 10 0 7.9599013342 10 0 7.7118091406 10 0 
7.4697679749 10 0 7.2336302507 10 0 7.0032519803 10 0 
6.7784926946 10 0 6.5592153462 10 0 6.3452862247 10 0 
6.1365748861 10 0 5.9329540665 10 0 5.734299606 10 0 
5.5404903794 10 0 5.3514082083 10 0 5.1669377955 10 0 
4.9869666627 10 0 4.8113850723 10 0 4.6400859588 10 0 
4.4729648718 10 0 4.3099199076 10 0 4.1508516504 10 0 
3.9956631098 10 0 3.844259654 10 0 3.6965489627 10 0 
3.5524409705 10 0 3.4118478065 10 0 3.2746837435 10 0 
3.1408651479 10 0 3.0103104238 10 0 2.8829399597 10 0 
2.7586760914 10 0 2.6374430479 10 0 2.519166906 10 0 
2.4037755499 10 0 2.2911986204 10 0 2.1813674703 10 0 
2.0742151271 10 0 1.9696762525 10 0 1.8676871039 10 0 
1.7681854984 10 0 1.6711107639 10 0 1.5764037074 10 0 
1.4840065791 10 0 1.3938630388 10 0 1.3059181194 10 0 
1.2201181971 10 0 1.1364109572 10 0 1.0547453588 10 0 
0.97507160451 10 0 0.89734111169 10 0 0.82150648561 10 0 
0.74752148462 10 0 0.67534099591 10 0 0.60492100349 10 0 
0.53621857153 10 0 0.46919180983 10 0 0.40379984635 10 0 
0.34000280915 10 0 0.27776179638 10 0 0.21703885635 10 0 
0.15779696428 10 0 0.075 10 0 0.05 10 0 
0.025 10 0 2.6574575873e-13 10 0 -0.025 10 0 
-0.05 10 0 -0.075 10 0 -0.16080986428 10 0 
-0.22234944532 10 0 -0.28462750229 10 0 -0.34765289346 10 0 
-0.41143458748 10 0 -0.47598166167 10 0 -0.54130330004 10 0 
-0.60740880041 10 0 -0.67430756817 10 0 -0.74200911888 10 0 
-0.81052308986 10 0 -0.87985922981 10 0 -0.95002740126 10 0 
-1.0210375925 10 0 -1.0928999071 10 0 -1.1656245665 10 0 
-1.2392219222 10 0 -1.3137024497 10 0 -1.3890767423 10 0 
-1.4653555232 10 0 -1.5425496489 10 0 -1.6206701073 10 0 
-1.6997280122 10 0 -1.7797346108 10 0 -1.8607012872 10 0 
-1.9426395651 10 0 -2.0255611028 10 0 -2.1094776961 10 0 
-2.1944012905 10 0 -2.2803439674 10 0 -2.3673179555 10 0 
-2.4553356352 10 0 -2.5444095283 10 0 -2.6345523061 10 0 
-2.7257767973 10 0 -2.8180959831 10 0 -2.911522996 10 0 
-3.006071133 10 0 -3.10175385 10 0 -3.198584757 10 0 
-3.2965776351 10 0 -3.3957464319 10 0 -3.4961052517 10 0 
-3.5976683776 10 0 -3.7004502618 10 0 -3.8044655262 10 0 
-3.9097289743 10 0 -4.0162555829 10 0 -4.1240605105 10 0 
-4.2331590971 10 0 -4.3435668642 10 0 -4.4552995239 10 0 
-4.5683729784 10 0 -4.6828033163 10 0 -4.7986068166 10 0 
-4.9157999579 10 0 -5.0343994191 10 0 -5.1544220747 10 0 
-5.2758849997 10 0 -5.3988054792 10 0 -5.5232010041 10 0 
-5.6490892763 10 0 -5.7764882093 10 0 -5.9054159286 10 0 
-6.0358907816 10 0 -6.1679313339 10 0 -6.3015563697 10 0 
-6.4367849066 10 0 -6.5736361875 10 0 -6.7121296816 10 0 
-6.8522850987 10 0 -6.9941223816 10 0 -7.137661712 10 0 
-7.2829235158 10 0 -7.4299284603 10 0 -7.5786974644 10 0 
-7.7292516959 10 0 -7.8816125771 10 0 -8.0358017915 10 0 
-8.1918412761 10 0 -8.3497532322 10 0 -8.5095601319 10 0 
-8.6712847155 10 0 -8.8349499936 10 0 -9.0005792534 10 0 
-9.1681960657 10 0 -9.3378242826 10 0 -9.509488035 10 0 
-9.6832117489 10 0 -9.8590201478 10 0 -10.03693825 10 0 
-10.216991374 10 0 -10.399205132 10 0 -10.583605452 10 0 
-10.770218579 10 0 -10.959071065 10 0 -11.15018978 10 0 
-11.343601917 10 0 -11.539335 10 0 -11.737416881 10 0 
-11.937875747 10 0 -12.140740121 10 0 -12.346038863 10 0 
-12.553801187 10 0 -12.764056659 10 0 -12.976835199 10 0 
-13.192167083 10 0 -13.41008295 10 0 -13.630613808 10 0 
-13.853791037 10 0 -14.079646393 10 0 -14.308212012 10 0 
-14.539520416 10 0 -14.773604522 10 0 -15.010497636 10 0 
-15.250233466 10 0 -15.492846127 10 0 -15.73837014 10 0 
-15.98684044 10 0 -16.238292386 10 0 -16.492761755 10 0 
-16.750284759 10 0 -17.010898038 10 0 -17.274638676 10 0 
-17.541544202 10 0 -17.811652595 10 0 -18.085002288 10 0 
-18.361632178 10 0 -18.641581628 10 0 -18.924890468 10 0 
-19.211599017 10 0 -19.501748069 10 0 -19.795378905 10 0 
-20.092533314 10 0 -20.393253579 10 0 -20.697582484 10 0 
-21.005563332 10 0 -21.317239952 10 0 -21.632656693 10 0 
-21.951858437 10 0 -22.274890601 10 0 -22.601799149 10 0 
-22.932630599 10 0 -23.267432027 10 0 -23.606251074 10 0 
-23.949135946 10 0 -24.296135437 10 0 -24.647298925 10 0 
-25.002676375 10 0 -25.362318354 10 0 -25.726276037 10 0 
-26.094601209 10 0 -26.467346282 10 0 -26.844564297 10 0 
-27.226308931 10 0 -27.612634502 10 0 -28.00359598 10 0 
-28.399248991 10 0 -28.799649841 10 0 -29.204855504 10 0 
-29.614923635 10 0 -30.029912582 10 0 -30.449881394 10 0 
-30.874889834 10 0 -31.304998376 10 0 -31.740268218 10 0 
-32.180761299 10 0 -32.626540297 10 0 -33.077668642 10 0 
-33.534210529 10 0 -33.996230916 10 0 -34.463795546 10 0 
-34.936970957 10 0 -35.41582447 10 0 -35.900424222 10 0 
-36.390839173 10 0 -36.887139105 10 0 -37.389394634 10 0 
-37.897677231 10 0 -38.412059219 10 0 -38.932613793 10 0 
-39.459415023 10 0 -39.992537867 10 0 -40.532058186 10 0 
-41.078052747 10 0 -41.630599242 10 0 -42.189776295 10 0 
-42.755663471 10 0 -43.328341294 10 0 -43.90789125 10 0 
-44.494395805 10 0 -45.087938417 10 0 -45.688603543 10 0 
-46.296476648 10 0 -46.911644227 10 0 -47.534193817 10 0 
-48.164214001 10 0 -48.801794431 10 0 -49.447025829 10 0 
-50.1 9.75 0 -50.1 9.5 0 -50.1 9.25 0 
-50.1 9 0 -50.1 8.75 0 -50.1 8.5 0 
-50.1 8.25 0 -50.1 8 0 -50.1 7.75 0 
-50.1 7.5 0 -50.1 7.25 0 -50.1 7 0 
-50.1 6.75 0 -50.1 6.5 0 -50.1 6.25 0 
-50.1 6 0 -50.1 5.75 0 -50.1 5.5 0 
-50.1 5.25 0 -50.1 5 0 -50.1 4.75 0 
-50.1 4.5 0 -50.1 4.25 0 -50.1 4 0 
-50.1 3.75 0 -50.1 3.5 0 -50.1 3.25 0 
-50.1 3 0 -50.1 2.75 0 -50.1 2.5 0 
-50.1 2.25 0 -50.1 2 0 -50.1 1.75 0 
-50.1 1.5 0 -50.1 1.25 0 -50.1 1 0 
-50.1 0.75 0 -50.1 0.5 0 -50.1 0.25 0 
-0.1 0.25 0 -0.1 0.5 0 -0.1 0.75 0 
-0.1 1 0 -0.1 1.25 0 -0.1 1.5 0 
-0.1 1.75 0 -0.1 2 0 -0.1 2.25 0 
-0.1 2.5 0 -0.1 2.75 0 -0.1 3 0 
-0.1 3.25 0 -0.1 3.5 0 -0.1 3.75 0 
-0.1 4 0 -0.1 4.25 0 -0.1 4.5 0 
-0.1 4.75 0 -0.1 5 0 -0.1 5.25 0 
-0.1 5.5 0 -0.1 5.75 0 -0.1 6 0 
-0.1 6.25 0 -0.1 6.5 0 -0.1 6.75 0 
-0.1 7 0 -0.1 7.25 0 -0.1 7.5 0 
-0.1 7.75 0 -0.1 8 0 -0.1 8.25 0 
-0.1 8.5 0 -0.1 8.75 0 -0.1 9 0 
-0.1 9.25 0 -0.1 9.5 0 -0.1 9.75 0 
0.1 9.75 0 0.1 9.5 0 0.1 9.25 0 
0.1 9 0 0.1 8.75 0 0.1 8.5 0 
0.1 8.25 0 0.1 8 0 0.1 7.75 0 
0.1 7.5 0 0.1 7.25 0 0.1 7 0 
0.1 6.75 0 0.1 6.5 0 0.1 6.25 0 
0.1 6 0 0.1 5.75 0 0.1 5.5 0 
0.1 5.25 0 0.1 5 0 0.1 4.75 0 
0.1 4.5 0 0.1 4.25 0 0.1 4 0 
0.1 3.75 0 0.1 3.5 0 0.1 3.25 0 
0.1 3 0 0.1 2.75 0 0.1 2.5 0 
0.1 2.25 0 0.1 2 0 0.1 1.75 0 
0.1 1.5 0 0.1 1.25 0 0.1 1 0 
0.1 0.75 0 0.1 0.5 0 0.1 0.25 0 
-49.447025829 0.25 0 -49.447025829 0.5 0 -49.447025829 0.75 0 
-49.447025829 1 0 -49.447025829 1.25 0 -49.447025829 1.5 0 
-49.447025829 1.75 0 -49.447025829 2 0 -49.447025829 2.25 0 
-49.447025829 2.5 0 -49.447025829 2.75 0 -49.447025829 3 0 
-49.447025829 3.25 0 -49.447025829 3.5 0 -49.447025829 3.75 0 
-49.447025829 4 0 -49.447025829 4.25 0 -49.447025829 4.5 0 
-49.447025829 4.75 0 -49.447025829 5 0 -49.447025829 5.25 0 
-49.447025829 5.5 0 -49.447025829 5.75 0 -49.447025829 6 0 
-49.447025829 6.25 0 -49.447025829 6.5 0 -49.447025829 6.75 0 
-49.447025829 7 0 -49.447025829 7.25 0 -49.447025829 7.5 0 
-49.447025829 7.75 0 -49.447025829 8 0 -49.447025829 8.25 0 
-49.447025829 8.5 0 -49.447025829 8.75 0 -49.447025829 9 0 
-49.447025829 9.25 0 -49.447025829 9.5 0 -49.447025829 9.75 0 
-48.801794431 0.25 0 -48.801794431 0.5 0 -48.801794431 0.75 0 
-48.801794431 1 0 -48.801794431 1.25 0 -48.801794431 1.5 0 
-48.801794431 1.75 0 -48.801794431 2 0 -48.801794431 2.25 0 
-48.801794431 2.5 0 -48.801794431 2.75 0 -48.801794431 3 0 
-48.801794431 3.25 0 -48.801794431 3.5 0 -48.801794431 3.75 0 
-48.801794431 4 0 -48.801794431 4.25 0 -48.801794431 4.5 0 
-48.801794431 4.75 0 -48.801794431 5 0 -48.801794431 5.25 0 
-48.801794431 5.5 0 -48.801794431 5.75 0 -48.801794431 6 0 
-48.801794431 6.25 0 -48.801794431 6.5 0 -48.801794431 6.75 0 
-48.801794431 7 0 -48.801794431 7.25 0 -48.801794431 7.5 0 
-48.801794431 7.75 0 -48.801794431 8 0 -48.801794431 8.25 0 
-48.801794431 8.5 0 -48.801794431 8.75 0 -48.801794431 9 0 
-48.801794431 9.25 0 -48.801794431 9.5 0 -48.801794431 9.75 0 
-48.164214001 0.25 0 -48.164214001 0.5 0 -48.164214001 0.75 0 
-48.164214001 1 0 -48.164214001 1.25 0 -48.164214001 1.5 0 
-48.164214001 1.75 0 -48.164214001 2 0 -48.164214001 2.25 0 
-48.164214001 2.5 0 -48.164214001 2.75 0 -48.164214001 3 0 
-48.164214001 3.25 0 -48.164214001 3.5 0 -48.164214001 3.75 0 
-48.164214001 4 0 -48.164214001 4.25 0 -48.164214001 4.5 0 
-48.164214001 4.75 0 -48.164214001 5 0 -48.164214001 5.25 0 
-48.164214001 5.5 0 -48.164214001 5.75 0 -48.164214001 6 0 
-48.164214001 6.25 0 -48.164214001 6.5 0 -48.164214001 6.75 0 
-48.164214001 7 0 -48.164214001 7.25 0 -48.164214001 7.5 0 
-48.164214001 7.75 0 -48.164214001 8 0 -48.164214001 8.25 0 
-48.164214001 8.5 0 -48.164214001 8.75 0 -48.164214001 9 0 
-48.164214001 9.25 0 -48.164214001 9.5 0 -48.164214001 9.75 0 
-47.534193818 0.25 0 -47.534193818 0.5 0 -47.534193818 0.75 0 
-47.534193818 1 0 -47.534193818 1.25 0 -47.534193818 1.5 0 
-47.534193817 1.75 0 -47.534193817 2 0 -47.534193817 2.25 0 
-47.534193817 2.5 0 -47.534193817 2.75 0 -47.534193817 3 0 
-47.534193817 3.25 0 -47.534193817 3.5 0 -47.534193817 3.75 0 
-47.534193817 4 0 -47.534193817 4.25 0 -47.534193817 4.5 0 
-47.534193817 4.75 0 -47.534193817 5 0 -47.534193817 5.25 0 
-47.534193817 5.5 0 -47.534193817 5.75 0 -47.534193817 6 0 
-47.534193817 6.25 0 -47.534193817 6.5 0 -47.534193817 6.75 0 
-47.534193817 7 0 -47.534193817 7.25 0 -47.534193817 7.5 0 
-47.534193817 7.75 0 -47.534193817 8 0 -47.534193817 8.25 0 
-47.534193817 8.5 0 -47.534193817 8.75 0 -47.534193817 9 0 
-47.534193817 9.25 0 -47.534193817 9.5 0 -47.534193817 9.75 0 
-46.911644227 0.25 0 -46.911644227 0.5 0 -46.911644227 0.75 0 
-46.911644227 1 0 -46.911644227 1.25 0 -46.911644227 1.5 0 
-46.911644227 1.75 0 -46.911644227 2 0 -46.911644227 2.25 0 
-46.911644227 2.5 0 -46.911644227 2.75 0 -46.911644227 3 0 
-46.911644227 3.25 0 -46.911644227 3.5 0 -46.911644227 3.75 0 
-46.911644227 4 0 -46.911644227 4.25 0 -46.911644227 4.5 0 
-46.911644227 4.75 0 -46.911644227 5 0 -46.911644227 5.25 0 
-46.911644227 5.5 0 -46.911644227 5.75 0 -46.911644227 6 0 
-46.911644227 6.25 0 -46.911644227 6.5 0 -46.911644227 6.75 0 
-46.911644227 7 0 -46.911644227 7.25 0 -46.911644227 7.5 0 
-46.911644227 7.75 0 -46.911644227 8 0 -46.911644227 8.25 0 
-46.911644227 8.5 0 -46.911644227 8.75 0 -46.911644227 9 0 
-46.911644227 9.25 0 -46.911644227 9.5 0 -46.911644227 9.75 0 
-46.296476648 0.25 0 -46.296476648 0.5 0 -46.296476648 0.75 0 
-46.296476648 1 0 -46.296476648 1.25 0 -46.296476648 1.5 0 
-46.296476648 1.75 0 -46.296476648 2 0 -46.296476648 2.25 0 
-46.296476648 2.5 0 -46.296476648 2.75 0 -46.296476648 3 0 
-46.296476648 3.25 0 -46.296476648 3.5 0 -46.296476648 3.75 0 
-46.296476648 4 0 -46.296476648 4.25 0 -46.296476648 4.5 0 
-46.296476648 4.75 0 -46.296476648 5 0 -46.296476648 5.25 0 
-46.296476648 5.5 0 -46.296476648 5.75 0 -46.296476648 6 0 
-46.296476648 6.25 0 -46.296476648 6.5 0 -46.296476648 6.75 0 
-46.296476648 7 0 -46.296476648 7.25 0 -46.296476648 7.5 0 
-46.296476648 7.75 0 -46.296476648 8 0 -46.296476648 8.25 0 
-46.296476648 8.5 0 -46.296476648 8.75 0 -46.296476648 9 0 
-46.296476648 9.25 0 -46.296476648 9.5 0 -46.296476648 9.75 0 
-45.688603543 0.25 0 -45.688603543 0.5 0 -45.688603543 0.75 0 
-45.688603543 1 0 -45.688603543 1.25 0 -45.688603543 1.5 0 
-45.688603543 1.75 0 -45.688603543 2 0 -45.688603543 2.25 0 
-45.688603543 2.5 0 -45.688603543 2.75 0 -45.688603543 3 0 
-45.688603543 3.25 0 -45.688603543 3.5 0 -45.688603543 3.75 0 
-45.688603543 4 0 -45.688603543 4.25 0 -45.688603543 4.5 0 
-45.688603543 4.75 0 -45.688603543 5 0 -45.688603543 5.25 0 
-45.688603543 5.5 0 -45.688603543 5.75 0 -45.688603543 6 0 
-45.688603543 6.25 0 -45.688603543 6.5 0 -45.688603543 6.75 0 
-45.688603543 7 0 -45.688603543 7.25 0 -45.688603543 7.5 0 
-45.688603543 7.75 0 -45.688603543 8 0 -45.688603543 8.25 0 
-45.688603543 8.5 0 -45.688603543 8.75 0 -45.688603543 9 0 
-45.688603543 9.25 0 -45.688603543 9.5 0 -45.688603543 9.75 0 
-45.087938417 0.25 0 -45.087938417 0.5 0 -45.087938417 0.75 0 
-45.087938417 1 0 -45.087938417 1.25 0 -45.087938417 1.5 0 
-45.087938417 1.75 0 -45.087938417 2 0 -45.087938417 2.25 0 
-45.087938417 2.5 0 -45.087938417 2.75 0 -45.087938417 3 0 
-45.087938417 3.25 0 -45.087938417 3.5 0 -45.087938417 3.75 0 
-45.087938417 4 0 -45.087938417 4.25 0 -45.087938417 4.5 0 
-45.087938417 4.75 0 -45.087938417 5 0 -45.087938417 5.25 0 
-45.087938417 5.5 0 -45.087938417 5.75 0 -45.087938417 6 0 
-45.087938417 6.25 0 -45.087938417 6.5 0 -45.087938417 6.75 0 
-45.087938417 7 0 -45.087938417 7.25 0 -45.087938417 7.5 0 
-45.087938417 7.75 0 -45.087938417 8 0 -45.087938417 8.25 0 
-45.087938417 8.5 0 -45.087938417 8.75 0 -45.087938417 9 0 
-45.087938417 9.25 0 -45.087938417 9.5 0 -45.087938417 9.75 0 
-44.494395805 0.25 0 -44.494395805 0.5 0 -44.494395805 0.75 0 
-44.494395805 1 0 -44.494395805 1.25 0 -44.494395805 1.5 0 
-44.494395805 1.75 0 -44.494395805 2 0 -44.494395805 2.25 0 
-44.494395805 2.5 0 -44.494395805 2.75 0 -44.494395805 3 0 
-44.494395805 3.25 0 -44.494395805 3.5 0 -44.494395805 3.75 0 
-44.494395805 4 0 -44.494395805 4.25 0 -44.494395805 4.5 0 
-44.494395805 4.75 0 -44.494395805 5 0 -44.494395805 5.25 0 
-44.494395805 5.5 0 -44.494395805 5.75 0 -44.494395805 6 0 
-44.494395805 6.25 0 -44.494395805 6.5 0 -44.494395805 6.75 0 
-44.494395805 7 0 -44.494395805 7.25 0 -44.494395805 7.5 0 
-44.494395805 7.75 0 -44.494395805 8 0 -44.494395805 8.25 0 
-44.494395805 8.5 0 -44.494395805 8.75 0 -44.494395805 9 0 
-44.494395805 9.25 0 -44.494395805 9.5 0 -44.494395805 9.75 0 
-43.90789125 0.25 0 -43.90789125 0.5 0 -43.90789125 0.75 0 
-43.90789125 1 0 -43.90789125 1.25 0 -43.90789125 1.5 0 
-43.90789125 1.75 0 -43.90789125 2 0 -43.90789125 2.25 0 
-43.90789125 2.5 0 -43.90789125 2.75 0 -43.90789125 3 0 
-43.90789125 3.25 0 -43.90789125 3.5 0 -43.90789125 3.75 0 
-43.90789125 4 0 -43.90789125 4.25 0 -43.90789125 4.5 0 
-43.90789125 4.75 0 -43.90789125 5 0 -43.90789125 5.25 0 
-43.90789125 5.5 0 -43.90789125 5.75 0 -43.90789125 6 0 
-43.90789125 6.25 0 -43.90789125 6.5 0 -43.90789125 6.75 0 
-43.90789125 7 0 -43.90789125 7.25 0 -43.90789125 7.5 0 
-43.90789125 7.75 0 -43.90789125 8 0 -43.90789125 8.25 0 
-43.90789125 8.5 0 -43.90789125 8.75 0 -43.90789125 9 0 
-43.90789125 9.25 0 -43.90789125 9.5 0 -43.90789125 9.75 0 
-43.328341294 0.25 0 -43.328341294 0.5 0 -43.328341294 0.75 0 
-43.328341294 1 0 -43.328341294 1.25 0 -43.328341294 1.5 0 
-43.328341294 1.75 0 -43.328341294 2 0 -43.328341294 2.25 0 
-43.328341294 2.5 0 -43.328341294 2.75 0 -43.328341294 3 0 
-43.328341294 3.25 0 -43.328341294 3.5 0 -43.328341294 3.75 0 
-43.328341294 4 0 -43.328341294 4.25 0 -43.328341294 4.5 0 
-43.328341294 4.75 0 -43.328341294 5 0 -43.328341294 5.25 0 
-43.328341294 5.5 0 -43.328341294 5.75 0 -43.328341294 6 0 
-43.328341294 6.25 0 -43.328341294 6.5 0 -43.328341294 6.75 0 
-43.328341294 7 0 -43.328341294 7.25 0 -43.328341294 7.5 0 
-43.328341294 7.75 0 -43.328341294 8 0 -43.328341294 8.25 0 
-43.328341294 8.5 0 -43.328341294 8.75 0 -43.328341294 9 0 
-43.328341294 9.25 0 -43.328341294 9.5 0 -43.328341294 9.75 0 
-42.755663471 0.25 0 -42.755663471 0.5 0 -42.755663471 0.75 0 
-42.755663471 1 0 -42.755663471 1.25 0 -42.755663471 1.5 0 
-42.755663471 1.75 0 -42.755663471 2 0 -42.755663471 2.25 0 
-42.755663471 2.5 0 -42.755663471 2.75 0 -42.755663471 3 0 
-42.755663471 3.25 0 -42.755663471 3.5 0 -42.755663471 3.75 0 
-42.755663471 4 0 -42.755663471 4.25 0 -42.755663471 4.5 0 
-42.755663471 4.75 0 -42.755663471 5 0 -42.755663471 5.25 0 
-42.755663471 5.5 0 -42.755663471 5.75 0 -42.755663471 6 0 
-42.755663471 6.25 0 -42.755663471 6.5 0 -42.755663471 6.75 0 
-42.755663471 7 0 -42.755663471 7.25 0 -42.755663471 7.5 0 
-42.755663471 7.75 0 -42.755663471 8 0 -42.755663471 8.25 0 
-42.755663471 8.5 0 -42.755663471 8.75 0 -42.755663471 9 0 
-42.755663471 9.25 0 -42.755663471 9.5 0 -42.755663471 9.75 0 
-42.189776295 0.25 0 -42.189776295 0.5 0 -42.189776295 0.75 0 
-42.189776295 1 0 -42.189776295 1.25 0 -42.189776295 1.5 0 
-42.189776295 1.75 0 -42.189776295 2 0 -42.189776295 2.25 0 
-42.189776295 2.5 0 -42.189776295 2.75 0 -42.189776295 3 0 
-42.189776295 3.25 0 -42.189776295 3.5 0 -42.189776295 3.75 0 
-42.189776295 4 0 -42.189776295 4.25 0 -42.189776295 4.5 0 
-42.189776295 4.75 0 -42.189776295 5 0 -42.189776295 5.25 0 
-42.189776295 5.5 0 -42.189776295 5.75 0 -42.189776295 6 0 
-42.189776295 6.25 0 -42.189776295 6.5 0 -42.189776295 6.75 0 
-42.189776295 7 0 -42.189776295 7.25 0 -42.189776295 7.5 0 
-42.189776295 7.75 0 -42.189776295 8 0 -42.189776295 8.25 0 
-42.189776295 8.5 0 -42.189776295 8.75 0 -42.189776295 9 0 
-42.189776295 9.25 0 -42.189776295 9.5 0 -42.189776295 9.75 0 
-41.630599242 0.25 0 -41.630599242 0.5 0 -41.630599242 0.75 0 
-41.630599242 1 0 -41.630599242 1.25 0 -41.630599242 1.5 0 
-41.630599242 1.75 0 -41.630599242 2 0 -41.630599242 2.25 0 
-41.630599242 2.5 0 -41.630599242 2.75 0 -41.630599242 3 0 
-41.630599242 3.25 0 -41.630599242 3.5 0 -41.630599242 3.75 0 
-41.630599242 4 0 -41.630599242 4.25 0 -41.630599242 4.5 0 
-41.630599242 4.75 0 -41.630599242 5 0 -41.630599242 5.25 0 
-41.630599242 5.5 0 -41.630599242 5.75 0 -41.630599242 6 0 
-41.630599242 6.25 0 -41.630599242 6.5 0 -41.630599242 6.75 0 
-41.630599242 7 0 -41.630599242 7.25 0 -41.630599242 7.5 0 
-41.630599242 7.75 0 -41.630599242 8 0 -41.630599242 8.25 0 
-41.630599242 8.5 0 -41.630599242 8.75 0 -41.630599242 9 0 
-41.630599242 9.25 0 -41.630599242 9.5 0 -41.630599242 9.75 0 
-41.078052747 0.25 0 -41.078052747 0.5 0 -41.078052747 0.75 0 
-41.078052747 1 0 -41.078052747 1.25 0 -41.078052747 1.5 0 
-41.078052747 1.75 0 -41.078052747 2 0 -41.078052747 2.25 0 
-41.078052747 2.5 0 -41.078052747 2.75 0 -41.078052747 3 0 
-41.078052747 3.25 0 -41.078052747 3.5 0 -41.078052747 3.75 0 
-41.078052747 4 0 -41.078052747 4.25 0 -41.078052747 4.5 0 
-41.078052747 4.75 0 -41.078052747 5 0 -41.078052747 5.25 0 
-41.078052747 5.5 0 -41.078052747 5.75 0 -41.078052747 6 0 
-41.078052747 6.25 0 -41.078052747 6.5 0 -41.078052747 6.75 0 
-41.078052747 7 0 -41.078052747 7.25 0 -41.078052747 7.5 0 
-41.078052747 7.75 0 -41.078052747 8 0 -41.078052747 8.25 0 
-41.078052747 8.5 0 -41.078052747 8.75 0 -41.078052747 9 0 
-41.078052747 9.25 0 -41.078052747 9.5 0 -41.078052747 9.75 0 
-40.532058186 0.25 0 -40.532058186 0.5 0 -40.532058186 0.75 0 
-40.532058186 1 0 -40.532058186 1.25 0 -40.532058186 1.5 0 
-40.532058186 1.75 0 -40.532058186 2 0 -40.532058186 2.25 0 
-40.532058186 2.5 0 -40.532058186 2.75 0 -40.532058186 3 0 
-40.532058186 3.25 0 -40.532058186 3.5 0 -40.532058186 3.75 0 
-40.532058186 4 0 -40.532058186 4.25 0 -40.532058186 4.5 0 
-40.532058186 4.75 0 -40.532058186 5 0 -40.532058186 5.25 0 
-40.532058186 5.5 0 -40.532058186 5.75 0 -40.532058186 6 0 
-40.532058186 6.25 0 -40.532058186 6.5 0 -40.532058186 6.75 0 
-40.532058186 7 0 -40.532058186 7.25 0 -40.532058186 7.5 0 
-40.532058186 7.75 0 -40.532058186 8 0 -40.532058186 8.25 0 
-40.532058186 8.5 0 -40.532058186 8.75 0 -40.532058186 9 0 
-40.532058186 9.25 0 -40.532058186 9.5 0 -40.532058186 9.75 0 
-39.992537867 0.25 0 -39.992537867 0.5 0 -39.992537867 0.75 0 
-39.992537867 1 0 -39.992537867 1.25 0 -39.992537867 1.5 0 
-39.992537867 1.75 0 -39.992537867 2 0 -39.992537867 2.25 0 
-39.992537867 2.5 0 -39.992537867 2.75 0 -39.992537867 3 0 
-39.992537867 3.25 0 -39.992537867 3.5 0 -39.992537867 3.75 0 
-39.992537867 4 0 -39.992537867 4.25 0 -39.992537867 4.5 0 
-39.992537867 4.75 0 -39.992537867 5 0 -39.992537867 5.25 0 
-39.992537867 5.5 0 -39.992537867 5.75 0 -39.992537867 6 0 
-39.992537867 6.25 0 -39.992537867 6.5 0 -39.992537867 6.75 0 
-39.992537867 7 0 -39.992537867 7.25 0 -39.992537867 7.5 0 
-39.992537867 7.75 0 -39.992537867 8 0 -39.992537867 8.25 0 
-39.992537867 8.5 0 -39.992537867 8.75 0 -39.992537867 9 0 
-39.992537867 9.25 0 -39.992537867 9.5 0 -39.992537867 9.75 0 
-39.459415023 0.25 0 -39.459415023 0.5 0 -39.459415023 0.75 0 
-39.459415023 1 0 -39.459415023 1.25 0 -39.459415023 1.5 0 
-39.459415023 1.75 0 -39.459415023 2 0 -39.459415023 2.25 0 
-39.459415023 2.5 0 -39.459415023 2.75 0 -39.459415023 3 0 
-39.459415023 3.25 0 -39.459415023 3.5 0 -39.459415023 3.75 0 
-39.459415023 4 0 -39.459415023 4.25 0 -39.459415023 4.5 0 
-39.459415023 4.75 0 -39.459415023 5 0 -39.459415023 5.25 0 
-39.459415023 5.5 0 -39.459415023 5.75 0 -39.459415023 6 0 
-39.459415023 6.25 0 -39.459415023 6.5 0 -39.459415023 6.75 0 
-39.459415023 7 0 -39.459415023 7.25 0 -39.459415023 7.5 0 
-39.459415023 7.75 0 -39.459415023 8 0 -39.459415023 8.25 0 
-39.459415023 8.5 0 -39.459415023 8.75 0 -39.459415023 9 0 
-39.459415023 9.25 0 -39.459415023 9.5 0 -39.459415023 9.75 0 
-38.932613793 0.25 0 -38.932613793 0.5 0 -38.932613793 0.75 0 
-38.932613793 1 0 -38.932613793 1.25 0 -38.932613793 1.5 0 
-38.932613793 1.75 0 -38.932613793 2 0 -38.932613793 2.25 0 
-38.932613793 2.5 0 -38.932613793 2.75 0 -38.932613793 3 0 
-38.932613793 3.25 0 -38.932613793 3.5 0 -38.932613793 3.75 0 
-38.932613793 4 0 -38.932613793 4.25 0 -38.932613793 4.5 0 
-38.932613793 4.75 0 -38.932613793 5 0 -38.932613793 5.25 0 
-38.932613793 5.5 0 -38.932613793 5.75 0 -38.932613793 6 0 
-38.932613793 6.25 0 -38.932613793 6.5 0 -38.932613793 6.75 0 
-38.932613793 7 0 -38.932613793 7.25 0 -38.932613793 7.5 0 
-38.932613793 7.75 0 -38.932613793 8 0 -38.932613793 8.25 0 
-38.932613793 8.5 0 -38.932613793 8.75 0 -38.932613793 9 0 
-38.932613793 9.25 0 -38.932613793 9.5 0 -38.932613793 9.75 0 
-38.412059219 0.25 0 -38.412059219 0.5 0 -38.412059219 0.75 0 
-38.412059219 1 0 -38.412059219 1.25 0 -38.412059219 1.5 0 
-38.412059219 1.75 0 -38.412059219 2 0 -38.412059219 2.25 0 
-38.412059219 2.5 0 -38.412059219 2.75 0 -38.412059219 3 0 
-38.412059219 3.25 0 -38.412059219 3.5 0 -38.412059219 3.75 0 
-38.412059219 4 0 -38.412059219 4.25 0 -38.412059219 4.5 0 
-38.412059219 4.75 0 -38.412059219 5 0 -38.412059219 5.25 0 
-38.412059219 5.5 0 -38.412059219 5.75 0 -38.412059219 6 0 
-38.412059219 6.25 0 -38.412059219 6.5 0 -38.412059219 6.75 0 
-38.412059219 7 0 -38.412059219 7.25 0 -38.412059219 7.5 0 
-38.412059219 7.75 0 -38.412059219 8 0 -38.412059219 8.25 0 
-38.412059219 8.5 0 -38.412059219 8.75 0 -38.412059219 9 0 
-38.412059219 9.25 0 -38.412059219 9.5 0 -38.412059219 9.75 0 
-37.897677231 0.25 0 -37.897677231 0.5 0 -37.897677231 0.75 0 
-37.897677231 1 0 -37.897677231 1.25 0 -37.897677231 1.5 0 
-37.897677231 1.75 0 -37.897677231 2 0 -37.897677231 2.25 0 
-37.897677231 2.5 0 -37.897677231 2.75 0 -37.897677231 3 0 
-37.897677231 3.25 0 -37.897677231 3.5 0 -37.897677231 3.75 0 
-37.897677231 4 0 -37.897677231 4.25 0 -37.897677231 4.5 0 
-37.897677231 4.75 0 -37.897677231 5 0 -37.897677231 5.25 0 
-37.897677231 5.5 0 -37.897677231 5.75 0 -37.897677231 6 0 
-37.897677231 6.25 0 -37.897677231 6.5 0 -37.897677231 6.75 0 
-37.897677231 7 0 -37.897677231 7.25 0 -37.897677231 7.5 0 
-37.897677231 7.75 0 -37.897677231 8 0 -37.897677231 8.25 0 
-37.897677231 8.5 0 -37.897677231 8.75 0 -37.897677231 9 0 
-37.897677231 9.25 0 -37.897677231 9.5 0 -37.897677231 9.75 0 
-37.389394634 0.25 0 -37.389394634 0.5 0 -37.389394634 0.75 0 
-37.389394634 1 0 -37.389394634 1.25 0 -37.389394634 1.5 0 
-37.389394634 1.75 0 -37.389394634 2 0 -37.389394634 2.25 0 
-37.389394634 2.5 0 -37.389394634 2.75 0 -37.389394634 3 0 
-37.389394634 3.25 0 -37.389394634 3.5 0 -37.389394634 3.75 0 
-37.389394634 4 0 -37.389394634 4.25 0 -37.389394634 4.5 0 
-37.389394634 4.75 0 -37.389394634 5 0 -37.389394634 5.25 0 
-37.389394634 5.5 0 -37.389394634 5.75 0 -37.389394634 6 0 
-37.389394634 6.25 0 -37.389394634 6.5 0 -37.389394634 6.75 0 
-37.389394634 7 0 -37.389394634 7.25 0 -37.389394634 7.5 0 
-37.389394634 7.75 0 -37.389394634 8 0 -37.389394634 8.25 0 
-37.389394634 8.5 0 -37.389394634 8.75 0 -37.389394634 9 0 
-37.389394634 9.25 0 -37.389394634 9.5 0 -37.389394634 9.75 0 
-36.887139106 0.25 0 -36.887139106 0.5 0 -36.887139106 0.75 0 
-36.887139106 1 0 -36.887139106 1.25 0 -36.887139106 1.5 0 
-36.887139106 1.75 0 -36.887139106 2 0 -36.887139106 2.25 0 
-36.887139106 2.5 0 -36.887139106 2.75 0 -36.887139106 3 0 
-36.887139106 3.25 0 -36.887139106 3.5 0 -36.887139106 3.75 0 
-36.887139106 4 0 -36.887139106 4.25 0 -36.887139106 4.5 0 
-36.887139106 4.75 0 -36.887139106 5 0 -36.887139106 5.25 0 
-36.887139106 5.5 0 -36.887139106 5.75 0 -36.887139105 6 0 
-36.887139105 6.25 0 -36.887139105 6.5 0 -36.887139105 6.75 0 
-36.887139105 7 0 -36.887139105 7.25 0 -36.887139105 7.5 0 
-36.887139105 7.75 0 -36.887139105 8 0 -36.887139105 8.25 0 
-36.887139105 8.5 0 -36.887139105 8.75 0 -36.887139105 9 0 
-36.887139105 9.25 0 -36.887139105 9.5 0 -36.887139105 9.75 0 
-36.390839174 0.25 0 -36.390839174 0.5 0 -36.390839174 0.75 0 
-36.390839174 1 0 -36.390839174 1.25 0 -36.390839174 1.5 0 
-36.390839174 1.75 0 -36.390839174 2 0 -36.390839174 2.25 0 
-36.390839174 2.5 0 -36.390839174 2.75 0 -36.390839174 3 0 
-36.390839173 3.25 0 -36.390839173 3.5 0 -36.390839173 3.75 0 
-36.390839173 4 0 -36.390839173 4.25 0 -36.390839173 4.5 0 
-36.390839173 4.75 0 -36.390839173 5 0 -36.390839173 5.25 0 
-36.390839173 5.5 0 -36.390839173 5.75 0 -36.390839173 6 0 
-36.390839173 6.25 0 -36.390839173 6.5 0 -36.390839173 6.75 0 
-36.390839173 7 0 -36.390839173 7.25 0 -36.390839173 7.5 0 
-36.390839173 7.75 0 -36.390839173 8 0 -36.390839173 8.25 0 
-36.390839173 8.5 0 -36.390839173 8.75 0 -36.390839173 9 0 
-36.390839173 9.25 0 -36.390839173 9.5 0 -36.390839173 9.75 0 
-35.900424222 0.25 0 -35.900424222 0.5 0 -35.900424222 0.75 0 
-35.900424222 1 0 -35.900424222 1.25 0 -35.900424222 1.5 0 
-35.900424222 1.75 0 -35.900424222 2 0 -35.900424222 2.25 0 
-35.900424222 2.5 0 -35.900424222 2.75 0 -35.900424222 3 0 
-35.900424222 3.25 0 -35.900424222 3.5 0 -35.900424222 3.75 0 
-35.900424222 4 0 -35.900424222 4.25 0 -35.900424222 4.5 0 
-35.900424222 4.75 0 -35.900424222 5 0 -35.900424222 5.25 0 
-35.900424222 5.5 0 -35.900424222 5.75 0 -35.900424222 6 0 
-35.900424222 6.25 0 -35.900424222 6.5 0 -35.900424222 6.75 0 
-35.900424222 7 0 -35.900424222 7.25 0 -35.900424222 7.5 0 
-35.900424222 7.75 0 -35.900424222 8 0 -35.900424222 8.25 0 
-35.900424222 8.5 0 -35.900424222 8.75 0 -35.900424222 9 0 
-35.900424222 9.25 0 -35.900424222 9.5 0 -35.900424222 9.75 0 
-35.415824471 0.25 0 -35.415824471 0.5 0 -35.415824471 0.75 0 
-35.415824471 1 0 -35.415824471 1.25 0 -35.415824471 1.5 0 
-35.415824471 1.75 0 -35.415824471 2 0 -35.415824471 2.25 0 
-35.415824471 2.5 0 -35.415824471 2.75 0 -35.415824471 3 0 
-35.415824471 3.25 0 -35.415824471 3.5 0 -35.415824471 3.75 0 
-35.415824471 4 0 -35.415824471 4.25 0 -35.415824471 4.5 0 
-35.415824471 4.75 0 -35.415824471 5 0 -35.415824471 5.25 0 
-35.415824471 5.5 0 -35.415824471 5.75 0 -35.415824471 6 0 
-35.415824471 6.25 0 -35.41582447 6.5 0 -35.41582447 6.75 0 
-35.41582447 7 0 -35.41582447 7.25 0 -35.41582447 7.5 0 
-35.41582447 7.75 0 -35.41582447 8 0 -35.41582447 8.25 0 
-35.41582447 8.5 0 -35.41582447 8.75 0 -35.41582447 9 0 
-35.41582447 9.25 0 -35.41582447 9.5 0 -35.41582447 9.75 0 
-34.936970957 0.25 0 -34.936970957 0.5 0 -34.936970957 0.75 0 
-34.936970957 1 0 -34.936970957 1.25 0 -34.936970957 1.5 0 
-34.936970957 1.75 0 -34.936970957 2 0 -34.936970957 2.25 0 
-34.936970957 2.5 0 -34.936970957 2.75 0 -34.936970957 3 0 
-34.936970957 3.25 0 -34.936970957 3.5 0 -34.936970957 3.75 0 
-34.936970957 4 0 -34.936970957 4.25 0 -34.936970957 4.5 0 
-34.936970957 4.75 0 -34.936970957 5 0 -34.936970957 5.25 0 
-34.936970957 5.5 0 -34.936970957 5.75 0 -34.936970957 6 0 
-34.936970957 6.25 0 -34.936970957 6.5 0 -34.936970957 6.75 0 
-34.936970957 7 0 -34.936970957 7.25 0 -34.936970957 7.5 0 
-34.936970957 7.75 0 -34.936970957 8 0 -34.936970957 8.25 0 
-34.936970957 8.5 0 -34.936970957 8.75 0 -34.936970957 9 0 
-34.936970957 9.25 0 -34.936970957 9.5 0 -34.936970957 9.75 0 
-34.463795547 0.25 0 -34.463795547 0.5 0 -34.463795547 0.75 0 
-34.463795547 1 0 -34.463795547 1.25 0 -34.463795547 1.5 0 
-34.463795547 1.75 0 -34.463795547 2 0 -34.463795547 2.25 0 
-34.463795547 2.5 0 -34.463795547 2.75 0 -34.463795547 3 0 
-34.463795547 3.25 0 -34.463795547 3.5 0 -34.463795547 3.75 0 
-34.463795546 4 0 -34.463795546 4.25 0 -34.463795546 4.5 0 
-34.463795546 4.75 0 -34.463795546 5 0 -34.463795546 5.25 0 
-34.463795546 5.5 0 -34.463795546 5.75 0 -34.463795546 6 0 
-34.463795546 6.25 0 -34.463795546 6.5 0 -34.463795546 6.75 0 
-34.463795546 7 0 -34.463795546 7.25 0 -34.463795546 7.5 0 
-34.463795546 7.75 0 -34.463795546 8 0 -34.463795546 8.25 0 
-34.463795546 8.5 0 -34.463795546 8.75 0 -34.463795546 9 0 
-34.463795546 9.25 0 -34.463795546 9.5 0 -34.463795546 9.75 0 
-33.996230916 0.25 0 -33.996230916 0.5 0 -33.996230916 0.75 0 
-33.996230916 1 0 -33.996230916 1.25 0 -33.996230916 1.5 0 
-33.996230916 1.75 0 -33.996230916 2 0 -33.996230916 2.25 0 
-33.996230916 2.5 0 -33.996230916 2.75 0 -33.996230916 3 0 
-33.996230916 3.25 0 -33.996230916 3.5 0 -33.996230916 3.75 0 
-33.996230916 4 0 -33.996230916 4.25 0 -33.996230916 4.5 0 
-33.996230916 4.75 0 -33.996230916 5 0 -33.996230916 5.25 0 
-33.996230916 5.5 0 -33.996230916 5.75 0 -33.996230916 6 0 
-33.996230916 6.25 0 -33.996230916 6.5 0 -33.996230916 6.75 0 
-33.996230916 7 0 -33.996230916 7.25 0 -33.996230916 7.5 0 
-33.996230916 7.75 0 -33.996230916 8 0 -33.996230916 8.25 0 
-33.996230916 8.5 0 -33.996230916 8.75 0 -33.996230916 9 0 
-33.996230916 9.25 0 -33.996230916 9.5 0 -33.996230916 9.75 0 
-33.534210529 0.25 0 -33.534210529 0.5 0 -33.534210529 0.75 0 
-33.534210529 1 0 -33.534210529 1.25 0 -33.534210529 1.5 0 
-33.534210529 1.75 0 -33.534210529 2 0 -33.534210529 2.25 0 
-33.534210529 2.5 0 -33.534210529 2.75 0 -33.534210529 3 0 
-33.534210529 3.25 0 -33.534210529 3.5 0 -33.534210529 3.75 0 
-33.534210529 4 0 -33.534210529 4.25 0 -33.534210529 4.5 0 
-33.534210529 4.75 0 -33.534210529 5 0 -33.534210529 5.25 0 
-33.534210529 5.5 0 -33.534210529 5.75 0 -33.534210529 6 0 
-33.534210529 6.25 0 -33.534210529 6.5 0 -33.534210529 6.75 0 
-33.534210529 7 0 -33.534210529 7.25 0 -33.534210529 7.5 0 
-33.534210529 7.75 0 -33.534210529 8 0 -33.534210529 8.25 0 
-33.534210529 8.5 0 -33.534210529 8.75 0 -33.534210529 9 0 
-33.534210529 9.25 0 -33.534210529 9.5 0 -33.534210529 9.75 0 
-33.077668642 0.25 0 -33.077668642 0.5 0 -33.077668642 0.75 0 
-33.077668642 1 0 -33.077668642 1.25 0 -33.077668642 1.5 0 
-33.077668642 1.75 0 -33.077668642 2 0 -33.077668642 2.25 0 
-33.077668642 2.5 0 -33.077668642 2.75 0 -33.077668642 3 0 
-33.077668642 3.25 0 -33.077668642 3.5 0 -33.077668642 3.75 0 
-33.077668642 4 0 -33.077668642 4.25 0 -33.077668642 4.5 0 
-33.077668642 4.75 0 -33.077668642 5 0 -33.077668642 5.25 0 
-33.077668642 5.5 0 -33.077668642 5.75 0 -33.077668642 6 0 
-33.077668642 6.25 0 -33.077668642 6.5 0 -33.077668642 6.75 0 
-33.077668642 7 0 -33.077668642 7.25 0 -33.077668642 7.5 0 
-33.077668642 7.75 0 -33.077668642 8 0 -33.077668642 8.25 0 
-33.077668642 8.5 0 -33.077668642 8.75 0 -33.077668642 9 0 
-33.077668642 9.25 0 -33.077668642 9.5 0 -33.077668642 9.75 0 
-32.626540297 0.25 0 -32.626540297 0.5 0 -32.626540297 0.75 0 
-32.626540297 1 0 -32.626540297 1.25 0 -32.626540297 1.5 0 
-32.626540297 1.75 0 -32.626540297 2 0 -32.626540297 2.25 0 
-32.626540297 2.5 0 -32.626540297 2.75 0 -32.626540297 3 0 
-32.626540297 3.25 0 -32.626540297 3.5 0 -32.626540297 3.75 0 
-32.626540297 4 0 -32.626540297 4.25 0 -32.626540297 4.5 0 
-32.626540297 4.75 0 -32.626540297 5 0 -32.626540297 5.25 0 
-32.626540297 5.5 0 -32.626540297 5.75 0 -32.626540297 6 0 
-32.626540297 6.25 0 -32.626540297 6.5 0 -32.626540297 6.75 0 
-32.626540297 7 0 -32.626540297 7.25 0 -32.626540297 7.5 0 
-32.626540297 7.75 0 -32.626540297 8 0 -32.626540297 8.25 0 
-32.626540297 8.5 0 -32.626540297 8.75 0 -32.626540297 9 0 
-32.626540297 9.25 0 -32.626540297 9.5 0 -32.626540297 9.75 0 
-32.180761299 0.25 0 -32.180761299 0.5 0 -32.180761299 0.75 0 
-32.180761299 1 0 -32.180761299 1.25 0 -32.180761299 1.5 0 
-32.180761299 1.75 0 -32.180761299 2 0 -32.180761299 2.25 0 
-32.180761299 2.5 0 -32.180761299 2.75 0 -32.180761299 3 0 
-32.180761299 3.25 0 -32.180761299 3.5 0 -32.180761299 3.75 0 
-32.180761299 4 0 -32.180761299 4.25 0 -32.180761299 4.5 0 
-32.180761299 4.75 0 -32.180761299 5 0 -32.180761299 5.25 0 
-32.180761299 5.5 0 -32.180761299 5.75 0 -32.180761299 6 0 
-32.180761299 6.25 0 -32.180761299 6.5 0 -32.180761299 6.75 0 
-32.180761299 7 0 -32.180761299 7.25 0 -32.180761299 7.5 0 
-32.180761299 7.75 0 -32.180761299 8 0 -32.180761299 8.25 0 
-32.180761299 8.5 0 -32.180761299 8.75 0 -32.180761299 9 0 
-32.180761299 9.25 0 -32.180761299 9.5 0 -32.180761299 9.75 0 
-31.740268219 0.25 0 -31.740268219 0.5 0 -31.740268219 0.75 0 
-31.740268219 1 0 -31.740268219 1.25 0 -31.740268219 1.5 0 
-31.740268219 1.75 0 -31.740268219 2 0 -31.740268219 2.25 0 
-31.740268219 2.5 0 -31.740268219 2.75 0 -31.740268219 3 0 
-31.740268219 3.25 0 -31.740268218 3.5 0 -31.740268218 3.75 0 
-31.740268218 4 0 -31.740268218 4.25 0 -31.740268218 4.5 0 
-31.740268218 4.75 0 -31.740268218 5 0 -31.740268218 5.25 0 
-31.740268218 5.5 0 -31.740268218 5.75 0 -31.740268218 6 0 
-31.740268218 6.25 0 -31.740268218 6.5 0 -31.740268218 6.75 0 
-31.740268218 7 0 -31.740268218 7.25 0 -31.740268218 7.5 0 
-31.740268218 7.75 0 -31.740268218 8 0 -31.740268218 8.25 0 
-31.740268218 8.5 0 -31.740268218 8.75 0 -31.740268218 9 0 
-31.740268218 9.25 0 -31.740268218 9.5 0 -31.740268218 9.75 0 
-31.304998377 0.25 0 -31.304998377 0.5 0 -31.304998377 0.75 0 
-31.304998377 1 0 -31.304998377 1.25 0 -31.304998377 1.5 0 
-31.304998377 1.75 0 -31.304998377 2 0 -31.304998377 2.25 0 
-31.304998377 2.5 0 -31.304998377 2.75 0 -31.304998377 3 0 
-31.304998377 3.25 0 -31.304998377 3.5 0 -31.304998377 3.75 0 
-31.304998377 4 0 -31.304998377 4.25 0 -31.304998377 4.5 0 
-31.304998377 4.75 0 -31.304998377 5 0 -31.304998377 5.25 0 
-31.304998377 5.5 0 -31.304998377 5.75 0 -31.304998377 6 0 
-31.304998377 6.25 0 -31.304998377 6.5 0 -31.304998377 6.75 0 
-31.304998377 7 0 -31.304998377 7.25 0 -31.304998377 7.5 0 
-31.304998377 7.75 0 -31.304998376 8 0 -31.304998376 8.25 0 
-31.304998376 8.5 0 -31.304998376 8.75 0 -31.304998376 9 0 
-31.304998376 9.25 0 -31.304998376 9.5 0 -31.304998376 9.75 0 
-30.874889834 0.25 0 -30.874889834 0.5 0 -30.874889834 0.75 0 
-30.874889834 1 0 -30.874889834 1.25 0 -30.874889834 1.5 0 
-30.874889834 1.75 0 -30.874889834 2 0 -30.874889834 2.25 0 
-30.874889834 2.5 0 -30.874889834 2.75 0 -30.874889834 3 0 
-30.874889834 3.25 0 -30.874889834 3.5 0 -30.874889834 3.75 0 
-30.874889834 4 0 -30.874889834 4.25 0 -30.874889834 4.5 0 
-30.874889834 4.75 0 -30.874889834 5 0 -30.874889834 5.25 0 
-30.874889834 5.5 0 -30.874889834 5.75 0 -30.874889834 6 0 
-30.874889834 6.25 0 -30.874889834 6.5 0 -30.874889834 6.75 0 
-30.874889834 7 0 -30.874889834 7.25 0 -30.874889834 7.5 0 
-30.874889834 7.75 0 -30.874889834 8 0 -30.874889834 8.25 0 
-30.874889834 8.5 0 -30.874889834 8.75 0 -30.874889834 9 0 
-30.874889834 9.25 0 -30.874889834 9.5 0 -30.874889834 9.75 0 
-30.449881395 0.25 0 -30.449881395 0.5 0 -30.449881395 0.75 0 
-30.449881395 1 0 -30.449881395 1.25 0 -30.449881395 1.5 0 
-30.449881395 1.75 0 -30.449881395 2 0 -30.449881395 2.25 0 
-30.449881395 2.5 0 -30.449881395 2.75 0 -30.449881395 3 0 
-30.449881395 3.25 0 -30.449881395 3.5 0 -30.449881395 3.75 0 
-30.449881395 4 0 -30.449881395 4.25 0 -30.449881395 4.5 0 
-30.449881395 4.75 0 -30.449881395 5 0 -30.449881395 5.25 0 
-30.449881395 5.5 0 -30.449881395 5.75 0 -30.449881395 6 0 
-30.449881395 6.25 0 -30.449881395 6.5 0 -30.449881395 6.75 0 
-30.449881395 7 0 -30.449881395 7.25 0 -30.449881395 7.5 0 
-30.449881395 7.75 0 -30.449881395 8 0 -30.449881395 8.25 0 
-30.449881395 8.5 0 -30.449881395 8.75 0 -30.449881394 9 0 
-30.449881394 9.25 0 -30.449881394 9.5 0 -30.449881394 9.75 0 
-30.029912583 0.25 0 -30.029912583 0.5 0 -30.029912583 0.75 0 
-30.029912583 1 0 -30.029912583 1.25 0 -30.029912583 1.5 0 
-30.029912583 1.75 0 -30.029912583 2 0 -30.029912583 2.25 0 
-30.029912583 2.5 0 -30.029912583 2.75 0 -30.029912583 3 0 
-30.029912583 3.25 0 -30.029912582 3.5 0 -30.029912582 3.75 0 
-30.029912582 4 0 -30.029912582 4.25 0 -30.029912582 4.5 0 
-30.029912582 4.75 0 -30.029912582 5 0 -30.029912582 5.25 0 
-30.029912582 5.5 0 -30.029912582 5.75 0 -30.029912582 6 0 
-30.029912582 6.25 0 -30.029912582 6.5 0 -30.029912582 6.75 0 
-30.029912582 7 0 -30.029912582 7.25 0 -30.029912582 7.5 0 
-30.029912582 7.75 0 -30.029912582 8 0 -30.029912582 8.25 0 
-30.029912582 8.5 0 -30.029912582 8.75 0 -30.029912582 9 0 
-30.029912582 9.25 0 -30.029912582 9.5 0 -30.029912582 9.75 0 
-29.614923635 0.25 0 -29.614923635 0.5 0 -29.614923635 0.75 0 
-29.614923635 1 0 -29.614923635 1.25 0 -29.614923635 1.5 0 
-29.614923635 1.75 0 -29.614923635 2 0 -29.614923635 2.25 0 
-29.614923635 2.5 0 -29.614923635 2.75 0 -29.614923635 3 0 
-29.614923635 3.25 0 -29.614923635 3.5 0 -29.614923635 3.75 0 
-29.614923635 4 0 -29.614923635 4.25 0 -29.614923635 4.5 0 
-29.614923635 4.75 0 -29.614923635 5 0 -29.614923635 5.25 0 
-29.614923635 5.5 0 -29.614923635 5.75 0 -29.614923635 6 0 
-29.614923635 6.25 0 -29.614923635 6.5 0 -29.614923635 6.75 0 
-29.614923635 7 0 -29.614923635 7.25 0 -29.614923635 7.5 0 
-29.614923635 7.75 0 -29.614923635 8 0 -29.614923635 8.25 0 
-29.614923635 8.5 0 -29.614923635 8.75 0 -29.614923635 9 0 
-29.614923635 9.25 0 -29.614923635 9.5 0 -29.614923635 9.75 0 
-29.204855504 0.25 0 -29.204855504 0.5 0 -29.204855504 0.75 0 
-29.204855504 1 0 -29.204855504 1.25 0 -29.204855504 1.5 0 
-29.204855504 1.75 0 -29.204855504 2 0 -29.204855504 2.25 0 
-29.204855504 2.5 0 -29.204855504 2.75 0 -29.204855504 3 0 
-29.204855504 3.25 0 -29.204855504 3.5 0 -29.204855504 3.75 0 
-29.204855504 4 0 -29.204855504 4.25 0 -29.204855504 4.5 0 
-29.204855504 4.75 0 -29.204855504 5 0 -29.204855504 5.25 0 
-29.204855504 5.5 0 -29.204855504 5.75 0 -29.204855504 6 0 
-29.204855504 6.25 0 -29.204855504 6.5 0 -29.204855504 6.75 0 
-29.204855504 7 0 -29.204855504 7.25 0 -29.204855504 7.5 0 
-29.204855504 7.75 0 -29.204855504 8 0 -29.204855504 8.25 0 
-29.204855504 8.5 0 -29.204855504 8.75 0 -29.204855504 9 0 
-29.204855504 9.25 0 -29.204855504 9.5 0 -29.204855504 9.75 0 
-28.799649841 0.25 0 -28.799649841 0.5 0 -28.799649841 0.75 0 
-28.799649841 1 0 -28.799649841 1.25 0 -28.799649841 1.5 0 
-28.799649841 1.75 0 -28.799649841 2 0 -28.799649841 2.25 0 
-28.799649841 2.5 0 -28.799649841 2.75 0 -28.799649841 3 0 
-28.799649841 3.25 0 -28.799649841 3.5 0 -28.799649841 3.75 0 
-28.799649841 4 0 -28.799649841 4.25 0 -28.799649841 4.5 0 
-28.799649841 4.75 0 -28.799649841 5 0 -28.799649841 5.25 0 
-28.799649841 5.5 0 -28.799649841 5.75 0 -28.799649841 6 0 
-28.799649841 6.25 0 -28.799649841 6.5 0 -28.799649841 6.75 0 
-28.799649841 7 0 -28.799649841 7.25 0 -28.799649841 7.5 0 
-28.799649841 7.75 0 -28.799649841 8 0 -28.799649841 8.25 0 
-28.799649841 8.5 0 -28.799649841 8.75 0 -28.799649841 9 0 
-28.799649841 9.25 0 -28.799649841 9.5 0 -28.799649841 9.75 0 
-28.399248992 0.25 0 -28.399248992 0.5 0 -28.399248992 0.75 0 
-28.399248991 1 0 -28.399248991 1.25 0 -28.399248991 1.5 0 
-28.399248991 1.75 0 -28.399248991 2 0 -28.399248991 2.25 0 
-28.399248991 2.5 0 -28.399248991 2.75 0 -28.399248991 3 0 
-28.399248991 3.25 0 -28.399248991 3.5 0 -28.399248991 3.75 0 
-28.399248991 4 0 -28.399248991 4.25 0 -28.399248991 4.5 0 
-28.399248991 4.75 0 -28.399248991 5 0 -28.399248991 5.25 0 
-28.399248991 5.5 0 -28.399248991 5.75 0 -28.399248991 6 0 
-28.399248991 6.25 0 -28.399248991 6.5 0 -28.399248991 6.75 0 
-28.399248991 7 0 -28.399248991 7.25 0 -28.399248991 7.5 0 
-28.399248991 7.75 0 -28.399248991 8 0 -28.399248991 8.25 0 
-28.399248991 8.5 0 -28.399248991 8.75 0 -28.399248991 9 0 
-28.399248991 9.25 0 -28.399248991 9.5 0 -28.399248991 9.75 0 
-28.00359598 0.25 0 -28.00359598 0.5 0 -28.00359598 0.75 0 
-28.00359598 1 0 -28.00359598 1.25 0 -28.00359598 1.5 0 
-28.00359598 1.75 0 -28.00359598 2 0 -28.00359598 2.25 0 
-28.00359598 2.5 0 -28.00359598 2.75 0 -28.00359598 3 0 
-28.00359598 3.25 0 -28.00359598 3.5 0 -28.00359598 3.75 0 
-28.00359598 4 0 -28.00359598 4.25 0 -28.00359598 4.5 0 
-28.00359598 4.75 0 -28.00359598 5 0 -28.00359598 5.25 0 
-28.00359598 5.5 0 -28.00359598 5.75 0 -28.00359598 6 0 
-28.00359598 6.25 0 -28.00359598 6.5 0 -28.00359598 6.75 0 
-28.00359598 7 0 -28.00359598 7.25 0 -28.00359598 7.5 0 
-28.00359598 7.75 0 -28.00359598 8 0 -28.00359598 8.25 0 
-28.00359598 8.5 0 -28.00359598 8.75 0 -28.00359598 9 0 
-28.00359598 9.25 0 -28.00359598 9.5 0 -28.00359598 9.75 0 
-27.612634502 0.25 0 -27.612634502 0.5 0 -27.612634502 0.75 0 
-27.612634502 1 0 -27.612634502 1.25 0 -27.612634502 1.5 0 
-27.612634502 1.75 0 -27.612634502 2 0 -27.612634502 2.25 0 
-27.612634502 2.5 0 -27.612634502 2.75 0 -27.612634502 3 0 
-27.612634502 3.25 0 -27.612634502 3.5 0 -27.612634502 3.75 0 
-27.612634502 4 0 -27.612634502 4.25 0 -27.612634502 4.5 0 
-27.612634502 4.75 0 -27.612634502 5 0 -27.612634502 5.25 0 
-27.612634502 5.5 0 -27.612634502 5.75 0 -27.612634502 6 0 
-27.612634502 6.25 0 -27.612634502 6.5 0 -27.612634502 6.75 0 
-27.612634502 7 0 -27.612634502 7.25 0 -27.612634502 7.5 0 
-27.612634502 7.75 0 -27.612634502 8 0 -27.612634502 8.25 0 
-27.612634502 8.5 0 -27.612634502 8.75 0 -27.612634502 9 0 
-27.612634502 9.25 0 -27.612634502 9.5 0 -27.612634502 9.75 0 
-27.226308931 0.25 0 -27.226308931 0.5 0 -27.226308931 0.75 0 
-27.226308931 1 0 -27.226308931 1.25 0 -27.226308931 1.5 0 
-27.226308931 1.75 0 -27.226308931 2 0 -27.226308931 2.25 0 
-27.226308931 2.5 0 -27.226308931 2.75 0 -27.226308931 3 0 
-27.226308931 3.25 0 -27.226308931 3.5 0 -27.226308931 3.75 0 
-27.226308931 4 0 -27.226308931 4.25 0 -27.226308931 4.5 0 
-27.226308931 4.75 0 -27.226308931 5 0 -27.226308931 5.25 0 
-27.226308931 5.5 0 -27.226308931 5.75 0 -27.226308931 6 0 
-27.226308931 6.25 0 -27.226308931 6.5 0 -27.226308931 6.75 0 
-27.226308931 7 0 -27.226308931 7.25 0 -27.226308931 7.5 0 
-27.226308931 7.75 0 -27.226308931 8 0 -27.226308931 8.25 0 
-27.226308931 8.5 0 -27.226308931 8.75 0 -27.226308931 9 0 
-27.226308931 9.25 0 -27.226308931 9.5 0 -27.226308931 9.75 0 
-26.844564298 0.25 0 -26.844564298 0.5 0 -26.844564298 0.75 0 
-26.844564298 1 0 -26.844564298 1.25 0 -26.844564298 1.5 0 
-26.844564298 1.75 0 -26.844564298 2 0 -26.844564298 2.25 0 
-26.844564298 2.5 0 -26.844564298 2.75 0 -26.844564297 3 0 
-26.844564297 3.25 0 -26.844564297 3.5 0 -26.844564297 3.75 0 
-26.844564297 4 0 -26.844564297 4.25 0 -26.844564297 4.5 0 
-26.844564297 4.75 0 -26.844564297 5 0 -26.844564297 5.25 0 
-26.844564297 5.5 0 -26.844564297 5.75 0 -26.844564297 6 0 
-26.844564297 6.25 0 -26.844564297 6.5 0 -26.844564297 6.75 0 
-26.844564297 7 0 -26.844564297 7.25 0 -26.844564297 7.5 0 
-26.844564297 7.75 0 -26.844564297 8 0 -26.844564297 8.25 0 
-26.844564297 8.5 0 -26.844564297 8.75 0 -26.844564297 9 0 
-26.844564297 9.25 0 -26.844564297 9.5 0 -26.844564297 9.75 0 
-26.467346282 0.25 0 -26.467346282 0.5 0 -26.467346282 0.75 0 
-26.467346282 1 0 -26.467346282 1.25 0 -26.467346282 1.5 0 
-26.467346282 1.75 0 -26.467346282 2 0 -26.467346282 2.25 0 
-26.467346282 2.5 0 -26.467346282 2.75 0 -26.467346282 3 0 
-26.467346282 3.25 0 -26.467346282 3.5 0 -26.467346282 3.75 0 
-26.467346282 4 0 -26.467346282 4.25 0 -26.467346282 4.5 0 
-26.467346282 4.75 0 -26.467346282 5 0 -26.467346282 5.25 0 
-26.467346282 5.5 0 -26.467346282 5.75 0 -26.467346282 6 0 
-26.467346282 6.25 0 -26.467346282 6.5 0 -26.467346282 6.75 0 
-26.467346282 7 0 -26.467346282 7.25 0 -26.467346282 7.5 0 
-26.467346282 7.75 0 -26.467346282 8 0 -26.467346282 8.25 0 
-26.467346282 8.5 0 -26.467346282 8.75 0 -26.467346282 9 0 
-26.467346282 9.25 0 -26.467346282 9.5 0 -26.467346282 9.75 0 
-26.094601209 0.25 0 -26.094601209 0.5 0 -26.094601209 0.75 0 
-26.094601209 1 0 -26.094601209 1.25 0 -26.094601209 1.5 0 
-26.094601209 1.75 0 -26.094601209 2 0 -26.094601209 2.25 0 
-26.094601209 2.5 0 -26.094601209 2.75 0 -26.094601209 3 0 
-26.094601209 3.25 0 -26.094601209 3.5 0 -26.094601209 3.75 0 
-26.094601209 4 0 -26.094601209 4.25 0 -26.094601209 4.5 0 
-26.094601209 4.75 0 -26.094601209 5 0 -26.094601209 5.25 0 
-26.094601209 5.5 0 -26.094601209 5.75 0 -26.094601209 6 0 
-26.094601209 6.25 0 -26.094601209 6.5 0 -26.094601209 6.75 0 
-26.094601209 7 0 -26.094601209 7.25 0 -26.094601209 7.5 0 
-26.094601209 7.75 0 -26.094601209 8 0 -26.094601209 8.25 0 
-26.094601209 8.5 0 -26.094601209 8.75 0 -26.094601209 9 0 
-26.094601209 9.25 0 -26.094601209 9.5 0 -26.094601209 9.75 0 
-25.726276037 0.25 0 -25.726276037 0.5 0 -25.726276037 0.75 0 
-25.726276037 1 0 -25.726276037 1.25 0 -25.726276037 1.5 0 
-25.726276037 1.75 0 -25.726276037 2 0 -25.726276037 2.25 0 
-25.726276037 2.5 0 -25.726276037 2.75 0 -25.726276037 3 0 
-25.726276037 3.25 0 -25.726276037 3.5 0 -25.726276037 3.75 0 
-25.726276037 4 0 -25.726276037 4.25 0 -25.726276037 4.5 0 
-25.726276037 4.75 0 -25.726276037 5 0 -25.726276037 5.25 0 
-25.726276037 5.5 0 -25.726276037 5.75 0 -25.726276037 6 0 
-25.726276037 6.25 0 -25.726276037 6.5 0 -25.726276037 6.75 0 
-25.726276037 7 0 -25.726276037 7.25 0 -25.726276037 7.5 0 
-25.726276037 7.75 0 -25.726276037 8 0 -25.726276037 8.25 0 
-25.726276037 8.5 0 -25.726276037 8.75 0 -25.726276037 9 0 
-25.726276037 9.25 0 -25.726276037 9.5 0 -25.726276037 9.75 0 
-25.362318354 0.25 0 -25.362318354 0.5 0 -25.362318354 0.75 0 
-25.362318354 1 0 -25.362318354 1.25 0 -25.362318354 1.5 0 
-25.362318354 1.75 0 -25.362318354 2 0 -25.362318354 2.25 0 
-25.362318354 2.5 0 -25.362318354 2.75 0 -25.362318354 3 0 
-25.362318354 3.25 0 -25.362318354 3.5 0 -25.362318354 3.75 0 
-25.362318354 4 0 -25.362318354 4.25 0 -25.362318354 4.5 0 
-25.362318354 4.75 0 -25.362318354 5 0 -25.362318354 5.25 0 
-25.362318354 5.5 0 -25.362318354 5.75 0 -25.362318354 6 0 
-25.362318354 6.25 0 -25.362318354 6.5 0 -25.362318354 6.75 0 
-25.362318354 7 0 -25.362318354 7.25 0 -25.362318354 7.5 0 
-25.362318354 7.75 0 -25.362318354 8 0 -25.362318354 8.25 0 
-25.362318354 8.5 0 -25.362318354 8.75 0 -25.362318354 9 0 
-25.362318354 9.25 0 -25.362318354 9.5 0 -25.362318354 9.75 0 
-25.002676375 0.25 0 -25.002676375 0.5 0 -25.002676375 0.75 0 
-25.002676375 1 0 -25.002676375 1.25 0 -25.002676375 1.5 0 
-25.002676375 1.75 0 -25.002676375 2 0 -25.002676375 2.25 0 
-25.002676375 2.5 0 -25.002676375 2.75 0 -25.002676375 3 0 
-25.002676375 3.25 0 -25.002676375 3.5 0 -25.002676375 3.75 0 
-25.002676375 4 0 -25.002676375 4.25 0 -25.002676375 4.5 0 
-25.002676375 4.75 0 -25.002676375 5 0 -25.002676375 5.25 0 
-25.002676375 5.5 0 -25.002676375 5.75 0 -25.002676375 6 0 
-25.002676375 6.25 0 -25.002676375 6.5 0 -25.002676375 6.75 0 
-25.002676375 7 0 -25.002676375 7.25 0 -25.002676375 7.5 0 
-25.002676375 7.75 0 -25.002676375 8 0 -25.002676375 8.25 0 
-25.002676375 8.5 0 -25.002676375 8.75 0 -25.002676375 9 0 
-25.002676375 9.25 0 -25.002676375 9.5 0 -25.002676375 9.75 0 
-24.647298925 0.25 0 -24.647298925 0.5 0 -24.647298925 0.75 0 
-24.647298925 1 0 -24.647298925 1.25 0 -24.647298925 1.5 0 
-24.647298925 1.75 0 -24.647298925 2 0 -24.647298925 2.25 0 
-24.647298925 2.5 0 -24.647298925 2.75 0 -24.647298925 3 0 
-24.647298925 3.25 0 -24.647298925 3.5 0 -24.647298925 3.75 0 
-24.647298925 4 0 -24.647298925 4.25 0 -24.647298925 4.5 0 
-24.647298925 4.75 0 -24.647298925 5 0 -24.647298925 5.25 0 
-24.647298925 5.5 0 -24.647298925 5.75 0 -24.647298925 6 0 
-24.647298925 6.25 0 -24.647298925 6.5 0 -24.647298925 6.75 0 
-24.647298925 7 0 -24.647298925 7.25 0 -24.647298925 7.5 0 
-24.647298925 7.75 0 -24.647298925 8 0 -24.647298925 8.25 0 
-24.647298925 8.5 0 -24.647298925 8.75 0 -24.647298925 9 0 
-24.647298925 9.25 0 -24.647298925 9.5 0 -24.647298925 9.75 0 
-24.296135438 0.25 0 -24.296135438 0.5 0 -24.296135438 0.75 0 
-24.296135438 1 0 -24.296135438 1.25 0 -24.296135438 1.5 0 
-24.296135438 1.75 0 -24.296135438 2 0 -24.296135438 2.25 0 
-24.296135438 2.5 0 -24.296135438 2.75 0 -24.296135438 3 0 
-24.296135438 3.25 0 -24.296135438 3.5 0 -24.296135438 3.75 0 
-24.296135438 4 0 -24.296135438 4.25 0 -24.296135438 4.5 0 
-24.296135438 4.75 0 -24.296135437 5 0 -24.296135437 5.25 0 
-24.296135437 5.5 0 -24.296135437 5.75 0 -24.296135437 6 0 
-24.296135437 6.25 0 -24.296135437 6.5 0 -24.296135437 6.75 0 
-24.296135437 7 0 -24.296135437 7.25 0 -24.296135437 7.5 0 
-24.296135437 7.75 0 -24.296135437 8 0 -24.296135437 8.25 0 
-24.296135437 8.5 0 -24.296135437 8.75 0 -24.296135437 9 0 
-24.296135437 9.25 0 -24.296135437 9.5 0 -24.296135437 9.75 0 
-23.949135946 0.25 0 -23.949135946 0.5 0 -23.949135946 0.75 0 
-23.949135946 1 0 -23.949135946 1.25 0 -23.949135946 1.5 0 
-23.949135946 1.75 0 -23.949135946 2 0 -23.949135946 2.25 0 
-23.949135946 2.5 0 -23.949135946 2.75 0 -23.949135946 3 0 
-23.949135946 3.25 0 -23.949135946 3.5 0 -23.949135946 3.75 0 
-23.949135946 4 0 -23.949135946 4.25 0 -23.949135946 4.5 0 
-23.949135946 4.75 0 -23.949135946 5 0 -23.949135946 5.25 0 
-23.949135946 5.5 0 -23.949135946 5.75 0 -23.949135946 6 0 
-23.949135946 6.25 0 -23.949135946 6.5 0 -23.949135946 6.75 0 
-23.949135946 7 0 -23.949135946 7.25 0 -23.949135946 7.5 0 
-23.949135946 7.75 0 -23.949135946 8 0 -23.949135946 8.25 0 
-23.949135946 8.5 0 -23.949135946 8.75 0 -23.949135946 9 0 
-23.949135946 9.25 0 -23.949135946 9.5 0 -23.949135946 9.75 0 
-23.606251074 0.25 0 -23.606251074 0.5 0 -23.606251074 0.75 0 
-23.606251074 1 0 -23.606251074 1.25 0 -23.606251074 1.5 0 
-23.606251074 1.75 0 -23.606251074 2 0 -23.606251074 2.25 0 
-23.606251074 2.5 0 -23.606251074 2.75 0 -23.606251074 3 0 
-23.606251074 3.25 0 -23.606251074 3.5 0 -23.606251074 3.75 0 
-23.606251074 4 0 -23.606251074 4.25 0 -23.606251074 4.5 0 
-23.606251074 4.75 0 -23.606251074 5 0 -23.606251074 5.25 0 
-23.606251074 5.5 0 -23.606251074 5.75 0 -23.606251074 6 0 
-23.606251074 6.25 0 -23.606251074 6.5 0 -23.606251074 6.75 0 
-23.606251074 7 0 -23.606251074 7.25 0 -23.606251074 7.5 0 
-23.606251074 7.75 0 -23.606251074 8 0 -23.606251074 8.25 0 
-23.606251074 8.5 0 -23.606251074 8.75 0 -23.606251074 9 0 
-23.606251074 9.25 0 -23.606251074 9.5 0 -23.606251074 9.75 0 
-23.267432028 0.25 0 -23.267432028 0.5 0 -23.267432028 0.75 0 
-23.267432028 1 0 -23.267432028 1.25 0 -23.267432028 1.5 0 
-23.267432028 1.75 0 -23.267432028 2 0 -23.267432028 2.25 0 
-23.267432028 2.5 0 -23.267432028 2.75 0 -23.267432028 3 0 
-23.267432028 3.25 0 -23.267432028 3.5 0 -23.267432028 3.75 0 
-23.267432028 4 0 -23.267432028 4.25 0 -23.267432028 4.5 0 
-23.267432028 4.75 0 -23.267432028 5 0 -23.267432028 5.25 0 
-23.267432028 5.5 0 -23.267432028 5.75 0 -23.267432028 6 0 
-23.267432028 6.25 0 -23.267432028 6.5 0 -23.267432028 6.75 0 
-23.267432028 7 0 -23.267432028 7.25 0 -23.267432028 7.5 0 
-23.267432028 7.75 0 -23.267432028 8 0 -23.267432028 8.25 0 
-23.267432028 8.5 0 -23.267432028 8.75 0 -23.267432028 9 0 
-23.267432028 9.25 0 -23.267432027 9.5 0 -23.267432027 9.75 0 
-22.932630599 0.25 0 -22.932630599 0.5 0 -22.932630599 0.75 0 
-22.932630599 1 0 -22.932630599 1.25 0 -22.932630599 1.5 0 
-22.932630599 1.75 0 -22.932630599 2 0 -22.932630599 2.25 0 
-22.932630599 2.5 0 -22.932630599 2.75 0 -22.932630599 3 0 
-22.932630599 3.25 0 -22.932630599 3.5 0 -22.932630599 3.75 0 
-22.932630599 4 0 -22.932630599 4.25 0 -22.932630599 4.5 0 
-22.932630599 4.75 0 -22.932630599 5 0 -22.932630599 5.25 0 
-22.932630599 5.5 0 -22.932630599 5.75 0 -22.932630599 6 0 
-22.932630599 6.25 0 -22.932630599 6.5 0 -22.932630599 6.75 0 
-22.932630599 7 0 -22.932630599 7.25 0 -22.932630599 7.5 0 
-22.932630599 7.75 0 -22.932630599 8 0 -22.932630599 8.25 0 
-22.932630599 8.5 0 -22.932630599 8.75 0 -22.932630599 9 0 
-22.932630599 9.25 0 -22.932630599 9.5 0 -22.932630599 9.75 0 
-22.60179915 0.25 0 -22.60179915 0.5 0 -22.60179915 0.75 0 
-22.60179915 1 0 -22.60179915 1.25 0 -22.60179915 1.5 0 
-22.60179915 1.75 0 -22.60179915 2 0 -22.60179915 2.25 0 
-22.60179915 2.5 0 -22.60179915 2.75 0 -22.60179915 3 0 
-22.60179915 3.25 0 -22.60179915 3.5 0 -22.60179915 3.75 0 
-22.60179915 4 0 -22.60179915 4.25 0 -22.60179915 4.5 0 
-22.60179915 4.75 0 -22.60179915 5 0 -22.60179915 5.25 0 
-22.60179915 5.5 0 -22.60179915 5.75 0 -22.60179915 6 0 
-22.60179915 6.25 0 -22.60179915 6.5 0 -22.60179915 6.75 0 
-22.601799149 7 0 -22.601799149 7.25 0 -22.601799149 7.5 0 
-22.601799149 7.75 0 -22.601799149 8 0 -22.601799149 8.25 0 
-22.601799149 8.5 0 -22.601799149 8.75 0 -22.601799149 9 0 
-22.601799149 9.25 0 -22.601799149 9.5 0 -22.601799149 9.75 0 
-22.274890601 0.25 0 -22.274890601 0.5 0 -22.274890601 0.75 0 
-22.274890601 1 0 -22.274890601 1.25 0 -22.274890601 1.5 0 
-22.274890601 1.75 0 -22.274890601 2 0 -22.274890601 2.25 0 
-22.274890601 2.5 0 -22.274890601 2.75 0 -22.274890601 3 0 
-22.274890601 3.25 0 -22.274890601 3.5 0 -22.274890601 3.75 0 
-22.274890601 4 0 -22.274890601 4.25 0 -22.274890601 4.5 0 
-22.274890601 4.75 0 -22.274890601 5 0 -22.274890601 5.25 0 
-22.274890601 5.5 0 -22.274890601 5.75 0 -22.274890601 6 0 
-22.274890601 6.25 0 -22.274890601 6.5 0 -22.274890601 6.75 0 
-22.274890601 7 0 -22.274890601 7.25 0 -22.274890601 7.5 0 
-22.274890601 7.75 0 -22.274890601 8 0 -22.274890601 8.25 0 
-22.274890601 8.5 0 -22.274890601 8.75 0 -22.274890601 9 0 
-22.274890601 9.25 0 -22.274890601 9.5 0 -22.274890601 9.75 0 
-21.951858437 0.25 0 -21.951858437 0.5 0 -21.951858437 0.75 0 
-21.951858437 1 0 -21.951858437 1.25 0 -21.951858437 1.5 0 
-21.951858437 1.75 0 -21.951858437 2 0 -21.951858437 2.25 0 
-21.951858437 2.5 0 -21.951858437 2.75 0 -21.951858437 3 0 
-21.951858437 3.25 0 -21.951858437 3.5 0 -21.951858437 3.75 0 
-21.951858437 4 0 -21.951858437 4.25 0 -21.951858437 4.5 0 
-21.951858437 4.75 0 -21.951858437 5 0 -21.951858437 5.25 0 
-21.951858437 5.5 0 -21.951858437 5.75 0 -21.951858437 6 0 
-21.951858437 6.25 0 -21.951858437 6.5 0 -21.951858437 6.75 0 
-21.951858437 7 0 -21.951858437 7.25 0 -21.951858437 7.5 0 
-21.951858437 7.75 0 -21.951858437 8 0 -21.951858437 8.25 0 
-21.951858437 8.5 0 -21.951858437 8.75 0 -21.951858437 9 0 
-21.951858437 9.25 0 -21.951858437 9.5 0 -21.951858437 9.75 0 
-21.632656693 0.25 0 -21.632656693 0.5 0 -21.632656693 0.75 0 
-21.632656693 1 0 -21.632656693 1.25 0 -21.632656693 1.5 0 
-21.632656693 1.75 0 -21.632656693 2 0 -21.632656693 2.25 0 
-21.632656693 2.5 0 -21.632656693 2.75 0 -21.632656693 3 0 
-21.632656693 3.25 0 -21.632656693 3.5 0 -21.632656693 3.75 0 
-21.632656693 4 0 -21.632656693 4.25 0 -21.632656693 4.5 0 
-21.632656693 4.75 0 -21.632656693 5 0 -21.632656693 5.25 0 
-21.632656693 5.5 0 -21.632656693 5.75 0 -21.632656693 6 0 
-21.632656693 6.25 0 -21.632656693 6.5 0 -21.632656693 6.75 0 
-21.632656693 7 0 -21.632656693 7.25 0 -21.632656693 7.5 0 
-21.632656693 7.75 0 -21.632656693 8 0 -21.632656693 8.25 0 
-21.632656693 8.5 0 -21.632656693 8.75 0 -21.632656693 9 0 
-21.632656693 9.25 0 -21.632656693 9.5 0 -21.632656693 9.75 0 
-21.317239952 0.25 0 -21.317239952 0.5 0 -21.317239952 0.75 0 
-21.317239952 1 0 -21.317239952 1.25 0 -21.317239952 1.5 0 
-21.317239952 1.75 0 -21.317239952 2 0 -21.317239952 2.25 0 
-21.317239952 2.5 0 -21.317239952 2.75 0 -21.317239952 3 0 
-21.317239952 3.25 0 -21.317239952 3.5 0 -21.317239952 3.75 0 
-21.317239952 4 0 -21.317239952 4.25 0 -21.317239952 4.5 0 
-21.317239952 4.75 0 -21.317239952 5 0 -21.317239952 5.25 0 
-21.317239952 5.5 0 -21.317239952 5.75 0 -21.317239952 6 0 
-21.317239952 6.25 0 -21.317239952 6.5 0 -21.317239952 6.75 0 
-21.317239952 7 0 -21.317239952 7.25 0 -21.317239952 7.5 0 
-21.317239952 7.75 0 -21.317239952 8 0 -21.317239952 8.25 0 
-21.317239952 8.5 0 -21.317239952 8.75 0 -21.317239952 9 0 
-21.317239952 9.25 0 -21.317239952 9.5 0 -21.317239952 9.75 0 
-21.005563333 0.25 0 -21.005563333 0.5 0 -21.005563333 0.75 0 
-21.005563333 1 0 -21.005563333 1.25 0 -21.005563333 1.5 0 
-21.005563333 1.75 0 -21.005563333 2 0 -21.005563333 2.25 0 
-21.005563333 2.5 0 -21.005563333 2.75 0 -21.005563333 3 0 
-21.005563333 3.25 0 -21.005563333 3.5 0 -21.005563333 3.75 0 
-21.005563333 4 0 -21.005563333 4.25 0 -21.005563333 4.5 0 
-21.005563332 4.75 0 -21.005563332 5 0 -21.005563332 5.25 0 
-21.005563332 5.5 0 -21.005563332 5.75 0 -21.005563332 6 0 
-21.005563332 6.25 0 -21.005563332 6.5 0 -21.005563332 6.75 0 
-21.005563332 7 0 -21.005563332 7.25 0 -21.005563332 7.5 0 
-21.005563332 7.75 0 -21.005563332 8 0 -21.005563332 8.25 0 
-21.005563332 8.5 0 -21.005563332 8.75 0 -21.005563332 9 0 
-21.005563332 9.25 0 -21.005563332 9.5 0 -21.005563332 9.75 0 
-20.697582484 0.25 0 -20.697582484 0.5 0 -20.697582484 0.75 0 
-20.697582484 1 0 -20.697582484 1.25 0 -20.697582484 1.5 0 
-20.697582484 1.75 0 -20.697582484 2 0 -20.697582484 2.25 0 
-20.697582484 2.5 0 -20.697582484 2.75 0 -20.697582484 3 0 
-20.697582484 3.25 0 -20.697582484 3.5 0 -20.697582484 3.75 0 
-20.697582484 4 0 -20.697582484 4.25 0 -20.697582484 4.5 0 
-20.697582484 4.75 0 -20.697582484 5 0 -20.697582484 5.25 0 
-20.697582484 5.5 0 -20.697582484 5.75 0 -20.697582484 6 0 
-20.697582484 6.25 0 -20.697582484 6.5 0 -20.697582484 6.75 0 
-20.697582484 7 0 -20.697582484 7.25 0 -20.697582484 7.5 0 
-20.697582484 7.75 0 -20.697582484 8 0 -20.697582484 8.25 0 
-20.697582484 8.5 0 -20.697582484 8.75 0 -20.697582484 9 0 
-20.697582484 9.25 0 -20.697582484 9.5 0 -20.697582484 9.75 0 
-20.393253579 0.25 0 -20.393253579 0.5 0 -20.393253579 0.75 0 
-20.393253579 1 0 -20.393253579 1.25 0 -20.393253579 1.5 0 
-20.393253579 1.75 0 -20.393253579 2 0 -20.393253579 2.25 0 
-20.393253579 2.5 0 -20.393253579 2.75 0 -20.393253579 3 0 
-20.393253579 3.25 0 -20.393253579 3.5 0 -20.393253579 3.75 0 
-20.393253579 4 0 -20.393253579 4.25 0 -20.393253579 4.5 0 
-20.393253579 4.75 0 -20.393253579 5 0 -20.393253579 5.25 0 
-20.393253579 5.5 0 -20.393253579 5.75 0 -20.393253579 6 0 
-20.393253579 6.25 0 -20.393253579 6.5 0 -20.393253579 6.75 0 
-20.393253579 7 0 -20.393253579 7.25 0 -20.393253579 7.5 0 
-20.393253579 7.75 0 -20.393253579 8 0 -20.393253579 8.25 0 
-20.393253579 8.5 0 -20.393253579 8.75 0 -20.393253579 9 0 
-20.393253579 9.25 0 -20.393253579 9.5 0 -20.393253579 9.75 0 
-20.092533314 0.25 0 -20.092533314 0.5 0 -20.092533314 0.75 0 
-20.092533314 1 0 -20.092533314 1.25 0 -20.092533314 1.5 0 
-20.092533314 1.75 0 -20.092533314 2 0 -20.092533314 2.25 0 
-20.092533314 2.5 0 -20.092533314 2.75 0 -20.092533314 3 0 
-20.092533314 3.25 0 -20.092533314 3.5 0 -20.092533314 3.75 0 
-20.092533314 4 0 -20.092533314 4.25 0 -20.092533314 4.5 0 
-20.092533314 4.75 0 -20.092533314 5 0 -20.092533314 5.25 0 
-20.092533314 5.5 0 -20.092533314 5.75 0 -20.092533314 6 0 
-20.092533314 6.25 0 -20.092533314 6.5 0 -20.092533314 6.75 0 
-20.092533314 7 0 -20.092533314 7.25 0 -20.092533314 7.5 0 
-20.092533314 7.75 0 -20.092533314 8 0 -20.092533314 8.25 0 
-20.092533314 8.5 0 -20.092533314 8.75 0 -20.092533314 9 0 
-20.092533314 9.25 0 -20.092533314 9.5 0 -20.092533314 9.75 0 
-19.795378905 0.25 0 -19.795378905 0.5 0 -19.795378905 0.75 0 
-19.795378905 1 0 -19.795378905 1.25 0 -19.795378905 1.5 0 
-19.795378905 1.75 0 -19.795378905 2 0 -19.795378905 2.25 0 
-19.795378905 2.5 0 -19.795378905 2.75 0 -19.795378905 3 0 
-19.795378905 3.25 0 -19.795378905 3.5 0 -19.795378905 3.75 0 
-19.795378905 4 0 -19.795378905 4.25 0 -19.795378905 4.5 0 
-19.795378905 4.75 0 -19.795378905 5 0 -19.795378905 5.25 0 
-19.795378905 5.5 0 -19.795378905 5.75 0 -19.795378905 6 0 
-19.795378905 6.25 0 -19.795378905 6.5 0 -19.795378905 6.75 0 
-19.795378905 7 0 -19.795378905 7.25 0 -19.795378905 7.5 0 
-19.795378905 7.75 0 -19.795378905 8 0 -19.795378905 8.25 0 
-19.795378905 8.5 0 -19.795378905 8.75 0 -19.795378905 9 0 
-19.795378905 9.25 0 -19.795378905 9.5 0 -19.795378905 9.75 0 
-19.501748069 0.25 0 -19.501748069 0.5 0 -19.501748069 0.75 0 
-19.501748069 1 0 -19.501748069 1.25 0 -19.501748069 1.5 0 
-19.501748069 1.75 0 -19.501748069 2 0 -19.501748069 2.25 0 
-19.501748069 2.5 0 -19.501748069 2.75 0 -19.501748069 3 0 
-19.501748069 3.25 0 -19.501748069 3.5 0 -19.501748069 3.75 0 
-19.501748069 4 0 -19.501748069 4.25 0 -19.501748069 4.5 0 
-19.501748069 4.75 0 -19.501748069 5 0 -19.501748069 5.25 0 
-19.501748069 5.5 0 -19.501748069 5.75 0 -19.501748069 6 0 
-19.501748069 6.25 0 -19.501748069 6.5 0 -19.501748069 6.75 0 
-19.501748069 7 0 -19.501748069 7.25 0 -19.501748069 7.5 0 
-19.501748069 7.75 0 -19.501748069 8 0 -19.501748069 8.25 0 
-19.501748069 8.5 0 -19.501748069 8.75 0 -19.501748069 9 0 
-19.501748069 9.25 0 -19.501748069 9.5 0 -19.501748069 9.75 0 
-19.211599017 0.25 0 -19.211599017 0.5 0 -19.211599017 0.75 0 
-19.211599017 1 0 -19.211599017 1.25 0 -19.211599017 1.5 0 
-19.211599017 1.75 0 -19.211599017 2 0 -19.211599017 2.25 0 
-19.211599017 2.5 0 -19.211599017 2.75 0 -19.211599017 3 0 
-19.211599017 3.25 0 -19.211599017 3.5 0 -19.211599017 3.75 0 
-19.211599017 4 0 -19.211599017 4.25 0 -19.211599017 4.5 0 
-19.211599017 4.75 0 -19.211599017 5 0 -19.211599017 5.25 0 
-19.211599017 5.5 0 -19.211599017 5.75 0 -19.211599017 6 0 
-19.211599017 6.25 0 -19.211599017 6.5 0 -19.211599017 6.75 0 
-19.211599017 7 0 -19.211599017 7.25 0 -19.211599017 7.5 0 
-19.211599017 7.75 0 -19.211599017 8 0 -19.211599017 8.25 0 
-19.211599017 8.5 0 -19.211599017 8.75 0 -19.211599017 9 0 
-19.211599017 9.25 0 -19.211599017 9.5 0 -19.211599017 9.75 0 
-18.924890469 0.25 0 -18.924890469 0.5 0 -18.924890469 0.75 0 
-18.924890469 1 0 -18.924890469 1.25 0 -18.924890469 1.5 0 
-18.924890469 1.75 0 -18.924890469 2 0 -18.924890469 2.25 0 
-18.924890469 2.5 0 -18.924890469 2.75 0 -18.924890469 3 0 
-18.924890469 3.25 0 -18.924890469 3.5 0 -18.924890469 3.75 0 
-18.924890469 4 0 -18.924890469 4.25 0 -18.924890469 4.5 0 
-18.924890469 4.75 0 -18.924890469 5 0 -18.924890469 5.25 0 
-18.924890469 5.5 0 -18.924890469 5.75 0 -18.924890469 6 0 
-18.924890469 6.25 0 -18.924890469 6.5 0 -18.924890469 6.75 0 
-18.924890469 7 0 -18.924890469 7.25 0 -18.924890469 7.5 0 
-18.924890469 7.75 0 -18.924890469 8 0 -18.924890469 8.25 0 
-18.924890469 8.5 0 -18.924890469 8.75 0 -18.924890469 9 0 
-18.924890469 9.25 0 -18.924890469 9.5 0 -18.924890469 9.75 0 
-18.641581628 0.25 0 -18.641581628 0.5 0 -18.641581628 0.75 0 
-18.641581628 1 0 -18.641581628 1.25 0 -18.641581628 1.5 0 
-18.641581628 1.75 0 -18.641581628 2 0 -18.641581628 2.25 0 
-18.641581628 2.5 0 -18.641581628 2.75 0 -18.641581628 3 0 
-18.641581628 3.25 0 -18.641581628 3.5 0 -18.641581628 3.75 0 
-18.641581628 4 0 -18.641581628 4.25 0 -18.641581628 4.5 0 
-18.641581628 4.75 0 -18.641581628 5 0 -18.641581628 5.25 0 
-18.641581628 5.5 0 -18.641581628 5.75 0 -18.641581628 6 0 
-18.641581628 6.25 0 -18.641581628 6.5 0 -18.641581628 6.75 0 
-18.641581628 7 0 -18.641581628 7.25 0 -18.641581628 7.5 0 
-18.641581628 7.75 0 -18.641581628 8 0 -18.641581628 8.25 0 
-18.641581628 8.5 0 -18.641581628 8.75 0 -18.641581628 9 0 
-18.641581628 9.25 0 -18.641581628 9.5 0 -18.641581628 9.75 0 
-18.361632179 0.25 0 -18.361632179 0.5 0 -18.361632179 0.75 0 
-18.361632179 1 0 -18.361632179 1.25 0 -18.361632179 1.5 0 
-18.361632179 1.75 0 -18.361632179 2 0 -18.361632179 2.25 0 
-18.361632179 2.5 0 -18.361632179 2.75 0 -18.361632179 3 0 
-18.361632179 3.25 0 -18.361632179 3.5 0 -18.361632178 3.75 0 
-18.361632178 4 0 -18.361632178 4.25 0 -18.361632178 4.5 0 
-18.361632178 4.75 0 -18.361632178 5 0 -18.361632178 5.25 0 
-18.361632178 5.5 0 -18.361632178 5.75 0 -18.361632178 6 0 
-18.361632178 6.25 0 -18.361632178 6.5 0 -18.361632178 6.75 0 
-18.361632178 7 0 -18.361632178 7.25 0 -18.361632178 7.5 0 
-18.361632178 7.75 0 -18.361632178 8 0 -18.361632178 8.25 0 
-18.361632178 8.5 0 -18.361632178 8.75 0 -18.361632178 9 0 
-18.361632178 9.25 0 -18.361632178 9.5 0 -18.361632178 9.75 0 
-18.085002288 0.25 0 -18.085002288 0.5 0 -18.085002288 0.75 0 
-18.085002288 1 0 -18.085002288 1.25 0 -18.085002288 1.5 0 
-18.085002288 1.75 0 -18.085002288 2 0 -18.085002288 2.25 0 
-18.085002288 2.5 0 -18.085002288 2.75 0 -18.085002288 3 0 
-18.085002288 3.25 0 -18.085002288 3.5 0 -18.085002288 3.75 0 
-18.085002288 4 0 -18.085002288 4.25 0 -18.085002288 4.5 0 
-18.085002288 4.75 0 -18.085002288 5 0 -18.085002288 5.25 0 
-18.085002288 5.5 0 -18.085002288 5.75 0 -18.085002288 6 0 
-18.085002288 6.25 0 -18.085002288 6.5 0 -18.085002288 6.75 0 
-18.085002288 7 0 -18.085002288 7.25 0 -18.085002288 7.5 0 
-18.085002288 7.75 0 -18.085002288 8 0 -18.085002288 8.25 0 
-18.085002288 8.5 0 -18.085002288 8.75 0 -18.085002288 9 0 
-18.085002288 9.25 0 -18.085002288 9.5 0 -18.085002288 9.75 0 
-17.811652595 0.25 0 -17.811652595 0.5 0 -17.811652595 0.75 0 
-17.811652595 1 0 -17.811652595 1.25 0 -17.811652595 1.5 0 
-17.811652595 1.75 0 -17.811652595 2 0 -17.811652595 2.25 0 
-17.811652595 2.5 0 -17.811652595 2.75 0 -17.811652595 3 0 
-17.811652595 3.25 0 -17.811652595 3.5 0 -17.811652595 3.75 0 
-17.811652595 4 0 -17.811652595 4.25 0 -17.811652595 4.5 0 
-17.811652595 4.75 0 -17.811652595 5 0 -17.811652595 5.25 0 
-17.811652595 5.5 0 -17.811652595 5.75 0 -17.811652595 6 0 
-17.811652595 6.25 0 -17.811652595 6.5 0 -17.811652595 6.75 0 
-17.811652595 7 0 -17.811652595 7.25 0 -17.811652595 7.5 0 
-17.811652595 7.75 0 -17.811652595 8 0 -17.811652595 8.25 0 
-17.811652595 8.5 0 -17.811652595 8.75 0 -17.811652595 9 0 
-17.811652595 9.25 0 -17.811652595 9.5 0 -17.811652595 9.75 0 
-17.541544203 0.25 0 -17.541544203 0.5 0 -17.541544203 0.75 0 
-17.541544203 1 0 -17.541544203 1.25 0 -17.541544203 1.5 0 
-17.541544203 1.75 0 -17.541544203 2 0 -17.541544203 2.25 0 
-17.541544203 2.5 0 -17.541544203 2.75 0 -17.541544203 3 0 
-17.541544203 3.25 0 -17.541544203 3.5 0 -17.541544203 3.75 0 
-17.541544203 4 0 -17.541544203 4.25 0 -17.541544203 4.5 0 
-17.541544203 4.75 0 -17.541544203 5 0 -17.541544202 5.25 0 
-17.541544202 5.5 0 -17.541544202 5.75 0 -17.541544202 6 0 
-17.541544202 6.25 0 -17.541544202 6.5 0 -17.541544202 6.75 0 
-17.541544202 7 0 -17.541544202 7.25 0 -17.541544202 7.5 0 
-17.541544202 7.75 0 -17.541544202 8 0 -17.541544202 8.25 0 
-17.541544202 8.5 0 -17.541544202 8.75 0 -17.541544202 9 0 
-17.541544202 9.25 0 -17.541544202 9.5 0 -17.541544202 9.75 0 
-17.274638676 0.25 0 -17.274638676 0.5 0 -17.274638676 0.75 0 
-17.274638676 1 0 -17.274638676 1.25 0 -17.274638676 1.5 0 
-17.274638676 1.75 0 -17.274638676 2 0 -17.274638676 2.25 0 
-17.274638676 2.5 0 -17.274638676 2.75 0 -17.274638676 3 0 
-17.274638676 3.25 0 -17.274638676 3.5 0 -17.274638676 3.75 0 
-17.274638676 4 0 -17.274638676 4.25 0 -17.274638676 4.5 0 
-17.274638676 4.75 0 -17.274638676 5 0 -17.274638676 5.25 0 
-17.274638676 5.5 0 -17.274638676 5.75 0 -17.274638676 6 0 
-17.274638676 6.25 0 -17.274638676 6.5 0 -17.274638676 6.75 0 
-17.274638676 7 0 -17.274638676 7.25 0 -17.274638676 7.5 0 
-17.274638676 7.75 0 -17.274638676 8 0 -17.274638676 8.25 0 
-17.274638676 8.5 0 -17.274638676 8.75 0 -17.274638676 9 0 
-17.274638676 9.25 0 -17.274638676 9.5 0 -17.274638676 9.75 0 
-17.010898038 0.25 0 -17.010898038 0.5 0 -17.010898038 0.75 0 
-17.010898038 1 0 -17.010898038 1.25 0 -17.010898038 1.5 0 
-17.010898038 1.75 0 -17.010898038 2 0 -17.010898038 2.25 0 
-17.010898038 2.5 0 -17.010898038 2.75 0 -17.010898038 3 0 
-17.010898038 3.25 0 -17.010898038 3.5 0 -17.010898038 3.75 0 
-17.010898038 4 0 -17.010898038 4.25 0 -17.010898038 4.5 0 
-17.010898038 4.75 0 -17.010898038 5 0 -17.010898038 5.25 0 
-17.010898038 5.5 0 -17.010898038 5.75 0 -17.010898038 6 0 
-17.010898038 6.25 0 -17.010898038 6.5 0 -17.010898038 6.75 0 
-17.010898038 7 0 -17.010898038 7.25 0 -17.010898038 7.5 0 
-17.010898038 7.75 0 -17.010898038 8 0 -17.010898038 8.25 0 
-17.010898038 8.5 0 -17.010898038 8.75 0 -17.010898038 9 0 
-17.010898038 9.25 0 -17.010898038 9.5 0 -17.010898038 9.75 0 
-16.750284759 0.25 0 -16.750284759 0.5 0 -16.750284759 0.75 0 
-16.750284759 1 0 -16.750284759 1.25 0 -16.750284759 1.5 0 
-16.750284759 1.75 0 -16.750284759 2 0 -16.750284759 2.25 0 
-16.750284759 2.5 0 -16.750284759 2.75 0 -16.750284759 3 0 
-16.750284759 3.25 0 -16.750284759 3.5 0 -16.750284759 3.75 0 
-16.750284759 4 0 -16.750284759 4.25 0 -16.750284759 4.5 0 
-16.750284759 4.75 0 -16.750284759 5 0 -16.750284759 5.25 0 
-16.750284759 5.5 0 -16.750284759 5.75 0 -16.750284759 6 0 
-16.750284759 6.25 0 -16.750284759 6.5 0 -16.750284759 6.75 0 
-16.750284759 7 0 -16.750284759 7.25 0 -16.750284759 7.5 0 
-16.750284759 7.75 0 -16.750284759 8 0 -16.750284759 8.25 0 
-16.750284759 8.5 0 -16.750284759 8.75 0 -16.750284759 9 0 
-16.750284759 9.25 0 -16.750284759 9.5 0 -16.750284759 9.75 0 
-16.492761755 0.25 0 -16.492761755 0.5 0 -16.492761755 0.75 0 
-16.492761755 1 0 -16.492761755 1.25 0 -16.492761755 1.5 0 
-16.492761755 1.75 0 -16.492761755 2 0 -16.492761755 2.25 0 
-16.492761755 2.5 0 -16.492761755 2.75 0 -16.492761755 3 0 
-16.492761755 3.25 0 -16.492761755 3.5 0 -16.492761755 3.75 0 
-16.492761755 4 0 -16.492761755 4.25 0 -16.492761755 4.5 0 
-16.492761755 4.75 0 -16.492761755 5 0 -16.492761755 5.25 0 
-16.492761755 5.5 0 -16.492761755 5.75 0 -16.492761755 6 0 
-16.492761755 6.25 0 -16.492761755 6.5 0 -16.492761755 6.75 0 
-16.492761755 7 0 -16.492761755 7.25 0 -16.492761755 7.5 0 
-16.492761755 7.75 0 -16.492761755 8 0 -16.492761755 8.25 0 
-16.492761755 8.5 0 -16.492761755 8.75 0 -16.492761755 9 0 
-16.492761755 9.25 0 -16.492761755 9.5 0 -16.492761755 9.75 0 
-16.238292386 0.25 0 -16.238292386 0.5 0 -16.238292386 0.75 0 
-16.238292386 1 0 -16.238292386 1.25 0 -16.238292386 1.5 0 
-16.238292386 1.75 0 -16.238292386 2 0 -16.238292386 2.25 0 
-16.238292386 2.5 0 -16.238292386 2.75 0 -16.238292386 3 0 
-16.238292386 3.25 0 -16.238292386 3.5 0 -16.238292386 3.75 0 
-16.238292386 4 0 -16.238292386 4.25 0 -16.238292386 4.5 0 
-16.238292386 4.75 0 -16.238292386 5 0 -16.238292386 5.25 0 
-16.238292386 5.5 0 -16.238292386 5.75 0 -16.238292386 6 0 
-16.238292386 6.25 0 -16.238292386 6.5 0 -16.238292386 6.75 0 
-16.238292386 7 0 -16.238292386 7.25 0 -16.238292386 7.5 0 
-16.238292386 7.75 0 -16.238292386 8 0 -16.238292386 8.25 0 
-16.238292386 8.5 0 -16.238292386 8.75 0 -16.238292386 9 0 
-16.238292386 9.25 0 -16.238292386 9.5 0 -16.238292386 9.75 0 
-15.986840441 0.25 0 -15.986840441 0.5 0 -15.986840441 0.75 0 
-15.986840441 1 0 -15.986840441 1.25 0 -15.986840441 1.5 0 
-15.986840441 1.75 0 -15.986840441 2 0 -15.986840441 2.25 0 
-15.986840441 2.5 0 -15.986840441 2.75 0 -15.986840441 3 0 
-15.986840441 3.25 0 -15.986840441 3.5 0 -15.986840441 3.75 0 
-15.986840441 4 0 -15.986840441 4.25 0 -15.986840441 4.5 0 
-15.986840441 4.75 0 -15.986840441 5 0 -15.986840441 5.25 0 
-15.986840441 5.5 0 -15.986840441 5.75 0 -15.986840441 6 0 
-15.98684044 6.25 0 -15.98684044 6.5 0 -15.98684044 6.75 0 
-15.98684044 7 0 -15.98684044 7.25 0 -15.98684044 7.5 0 
-15.98684044 7.75 0 -15.98684044 8 0 -15.98684044 8.25 0 
-15.98684044 8.5 0 -15.98684044 8.75 0 -15.98684044 9 0 
-15.98684044 9.25 0 -15.98684044 9.5 0 -15.98684044 9.75 0 
-15.73837014 0.25 0 -15.73837014 0.5 0 -15.73837014 0.75 0 
-15.73837014 1 0 -15.73837014 1.25 0 -15.73837014 1.5 0 
-15.73837014 1.75 0 -15.73837014 2 0 -15.73837014 2.25 0 
-15.73837014 2.5 0 -15.73837014 2.75 0 -15.73837014 3 0 
-15.73837014 3.25 0 -15.73837014 3.5 0 -15.73837014 3.75 0 
-15.73837014 4 0 -15.73837014 4.25 0 -15.73837014 4.5 0 
-15.73837014 4.75 0 -15.73837014 5 0 -15.73837014 5.25 0 
-15.73837014 5.5 0 -15.73837014 5.75 0 -15.73837014 6 0 
-15.73837014 6.25 0 -15.73837014 6.5 0 -15.73837014 6.75 0 
-15.73837014 7 0 -15.73837014 7.25 0 -15.73837014 7.5 0 
-15.73837014 7.75 0 -15.73837014 8 0 -15.73837014 8.25 0 
-15.73837014 8.5 0 -15.73837014 8.75 0 -15.73837014 9 0 
-15.73837014 9.25 0 -15.73837014 9.5 0 -15.73837014 9.75 0 
-15.492846127 0.25 0 -15.492846127 0.5 0 -15.492846127 0.75 0 
-15.492846127 1 0 -15.492846127 1.25 0 -15.492846127 1.5 0 
-15.492846127 1.75 0 -15.492846127 2 0 -15.492846127 2.25 0 
-15.492846127 2.5 0 -15.492846127 2.75 0 -15.492846127 3 0 
-15.492846127 3.25 0 -15.492846127 3.5 0 -15.492846127 3.75 0 
-15.492846127 4 0 -15.492846127 4.25 0 -15.492846127 4.5 0 
-15.492846127 4.75 0 -15.492846127 5 0 -15.492846127 5.25 0 
-15.492846127 5.5 0 -15.492846127 5.75 0 -15.492846127 6 0 
-15.492846127 6.25 0 -15.492846127 6.5 0 -15.492846127 6.75 0 
-15.492846127 7 0 -15.492846127 7.25 0 -15.492846127 7.5 0 
-15.492846127 7.75 0 -15.492846127 8 0 -15.492846127 8.25 0 
-15.492846127 8.5 0 -15.492846127 8.75 0 -15.492846127 9 0 
-15.492846127 9.25 0 -15.492846127 9.5 0 -15.492846127 9.75 0 
-15.250233467 0.25 0 -15.250233467 0.5 0 -15.250233467 0.75 0 
-15.250233467 1 0 -15.250233467 1.25 0 -15.250233467 1.5 0 
-15.250233467 1.75 0 -15.250233467 2 0 -15.250233467 2.25 0 
-15.250233467 2.5 0 -15.250233467 2.75 0 -15.250233467 3 0 
-15.250233467 3.25 0 -15.250233467 3.5 0 -15.250233467 3.75 0 
-15.250233467 4 0 -15.250233467 4.25 0 -15.250233467 4.5 0 
-15.250233467 4.75 0 -15.250233467 5 0 -15.250233467 5.25 0 
-15.250233466 5.5 0 -15.250233466 5.75 0 -15.250233466 6 0 
-15.250233466 6.25 0 -15.250233466 6.5 0 -15.250233466 6.75 0 
-15.250233466 7 0 -15.250233466 7.25 0 -15.250233466 7.5 0 
-15.250233466 7.75 0 -15.250233466 8 0 -15.250233466 8.25 0 
-15.250233466 8.5 0 -15.250233466 8.75 0 -15.250233466 9 0 
-15.250233466 9.25 0 -15.250233466 9.5 0 -15.250233466 9.75 0 
-15.010497637 0.25 0 -15.010497637 0.5 0 -15.010497637 0.75 0 
-15.010497637 1 0 -15.010497637 1.25 0 -15.010497637 1.5 0 
-15.010497637 1.75 0 -15.010497637 2 0 -15.010497637 2.25 0 
-15.010497637 2.5 0 -15.010497637 2.75 0 -15.010497636 3 0 
-15.010497636 3.25 0 -15.010497636 3.5 0 -15.010497636 3.75 0 
-15.010497636 4 0 -15.010497636 4.25 0 -15.010497636 4.5 0 
-15.010497636 4.75 0 -15.010497636 5 0 -15.010497636 5.25 0 
-15.010497636 5.5 0 -15.010497636 5.75 0 -15.010497636 6 0 
-15.010497636 6.25 0 -15.010497636 6.5 0 -15.010497636 6.75 0 
-15.010497636 7 0 -15.010497636 7.25 0 -15.010497636 7.5 0 
-15.010497636 7.75 0 -15.010497636 8 0 -15.010497636 8.25 0 
-15.010497636 8.5 0 -15.010497636 8.75 0 -15.010497636 9 0 
-15.010497636 9.25 0 -15.010497636 9.5 0 -15.010497636 9.75 0 
-14.773604522 0.25 0 -14.773604522 0.5 0 -14.773604522 0.75 0 
-14.773604522 1 0 -14.773604522 1.25 0 -14.773604522 1.5 0 
-14.773604522 1.75 0 -14.773604522 2 0 -14.773604522 2.25 0 
-14.773604522 2.5 0 -14.773604522 2.75 0 -14.773604522 3 0 
-14.773604522 3.25 0 -14.773604522 3.5 0 -14.773604522 3.75 0 
-14.773604522 4 0 -14.773604522 4.25 0 -14.773604522 4.5 0 
-14.773604522 4.75 0 -14.773604522 5 0 -14.773604522 5.25 0 
-14.773604522 5.5 0 -14.773604522 5.75 0 -14.773604522 6 0 
-14.773604522 6.25 0 -14.773604522 6.5 0 -14.773604522 6.75 0 
-14.773604522 7 0 -14.773604522 7.25 0 -14.773604522 7.5 0 
-14.773604522 7.75 0 -14.773604522 8 0 -14.773604522 8.25 0 
-14.773604522 8.5 0 -14.773604522 8.75 0 -14.773604522 9 0 
-14.773604522 9.25 0 -14.773604522 9.5 0 -14.773604522 9.75 0 
-14.539520416 0.25 0 -14.539520416 0.5 0 -14.539520416 0.75 0 
-14.539520416 1 0 -14.539520416 1.25 0 -14.539520416 1.5 0 
-14.539520416 1.75 0 -14.539520416 2 0 -14.539520416 2.25 0 
-14.539520416 2.5 0 -14.539520416 2.75 0 -14.539520416 3 0 
-14.539520416 3.25 0 -14.539520416 3.5 0 -14.539520416 3.75 0 
-14.539520416 4 0 -14.539520416 4.25 0 -14.539520416 4.5 0 
-14.539520416 4.75 0 -14.539520416 5 0 -14.539520416 5.25 0 
-14.539520416 5.5 0 -14.539520416 5.75 0 -14.539520416 6 0 
-14.539520416 6.25 0 -14.539520416 6.5 0 -14.539520416 6.75 0 
-14.539520416 7 0 -14.539520416 7.25 0 -14.539520416 7.5 0 
-14.539520416 7.75 0 -14.539520416 8 0 -14.539520416 8.25 0 
-14.539520416 8.5 0 -14.539520416 8.75 0 -14.539520416 9 0 
-14.539520416 9.25 0 -14.539520416 9.5 0 -14.539520416 9.75 0 
-14.308212012 0.25 0 -14.308212012 0.5 0 -14.308212012 0.75 0 
-14.308212012 1 0 -14.308212012 1.25 0 -14.308212012 1.5 0 
-14.308212012 1.75 0 -14.308212012 2 0 -14.308212012 2.25 0 
-14.308212012 2.5 0 -14.308212012 2.75 0 -14.308212012 3 0 
-14.308212012 3.25 0 -14.308212012 3.5 0 -14.308212012 3.75 0 
-14.308212012 4 0 -14.308212012 4.25 0 -14.308212012 4.5 0 
-14.308212012 4.75 0 -14.308212012 5 0 -14.308212012 5.25 0 
-14.308212012 5.5 0 -14.308212012 5.75 0 -14.308212012 6 0 
-14.308212012 6.25 0 -14.308212012 6.5 0 -14.308212012 6.75 0 
-14.308212012 7 0 -14.308212012 7.25 0 -14.308212012 7.5 0 
-14.308212012 7.75 0 -14.308212012 8 0 -14.308212012 8.25 0 
-14.308212012 8.5 0 -14.308212012 8.75 0 -14.308212012 9 0 
-14.308212012 9.25 0 -14.308212012 9.5 0 -14.308212012 9.75 0 
-14.079646394 0.25 0 -14.079646394 0.5 0 -14.079646394 0.75 0 
-14.079646394 1 0 -14.079646394 1.25 0 -14.079646394 1.5 0 
-14.079646394 1.75 0 -14.079646394 2 0 -14.079646394 2.25 0 
-14.079646394 2.5 0 -14.079646394 2.75 0 -14.079646394 3 0 
-14.079646394 3.25 0 -14.079646394 3.5 0 -14.079646394 3.75 0 
-14.079646394 4 0 -14.079646394 4.25 0 -14.079646394 4.5 0 
-14.079646394 4.75 0 -14.079646394 5 0 -14.079646394 5.25 0 
-14.079646394 5.5 0 -14.079646394 5.75 0 -14.079646394 6 0 
-14.079646394 6.25 0 -14.079646394 6.5 0 -14.079646393 6.75 0 
-14.079646393 7 0 -14.079646393 7.25 0 -14.079646393 7.5 0 
-14.079646393 7.75 0 -14.079646393 8 0 -14.079646393 8.25 0 
-14.079646393 8.5 0 -14.079646393 8.75 0 -14.079646393 9 0 
-14.079646393 9.25 0 -14.079646393 9.5 0 -14.079646393 9.75 0 
-13.853791037 0.25 0 -13.853791037 0.5 0 -13.853791037 0.75 0 
-13.853791037 1 0 -13.853791037 1.25 0 -13.853791037 1.5 0 
-13.853791037 1.75 0 -13.853791037 2 0 -13.853791037 2.25 0 
-13.853791037 2.5 0 -13.853791037 2.75 0 -13.853791037 3 0 
-13.853791037 3.25 0 -13.853791037 3.5 0 -13.853791037 3.75 0 
-13.853791037 4 0 -13.853791037 4.25 0 -13.853791037 4.5 0 
-13.853791037 4.75 0 -13.853791037 5 0 -13.853791037 5.25 0 
-13.853791037 5.5 0 -13.853791037 5.75 0 -13.853791037 6 0 
-13.853791037 6.25 0 -13.853791037 6.5 0 -13.853791037 6.75 0 
-13.853791037 7 0 -13.853791037 7.25 0 -13.853791037 7.5 0 
-13.853791037 7.75 0 -13.853791037 8 0 -13.853791037 8.25 0 
-13.853791037 8.5 0 -13.853791037 8.75 0 -13.853791037 9 0 
-13.853791037 9.25 0 -13.853791037 9.5 0 -13.853791037 9.75 0 
-13.630613808 0.25 0 -13.630613808 0.5 0 -13.630613808 0.75 0 
-13.630613808 1 0 -13.630613808 1.25 0 -13.630613808 1.5 0 
-13.630613808 1.75 0 -13.630613808 2 0 -13.630613808 2.25 0 
-13.630613808 2.5 0 -13.630613808 2.75 0 -13.630613808 3 0 
-13.630613808 3.25 0 -13.630613808 3.5 0 -13.630613808 3.75 0 
-13.630613808 4 0 -13.630613808 4.25 0 -13.630613808 4.5 0 
-13.630613808 4.75 0 -13.630613808 5 0 -13.630613808 5.25 0 
-13.630613808 5.5 0 -13.630613808 5.75 0 -13.630613808 6 0 
-13.630613808 6.25 0 -13.630613808 6.5 0 -13.630613808 6.75 0 
-13.630613808 7 0 -13.630613808 7.25 0 -13.630613808 7.5 0 
-13.630613808 7.75 0 -13.630613808 8 0 -13.630613808 8.25 0 
-13.630613808 8.5 0 -13.630613808 8.75 0 -13.630613808 9 0 
-13.630613808 9.25 0 -13.630613808 9.5 0 -13.630613808 9.75 0 
-13.41008295 0.25 0 -13.41008295 0.5 0 -13.41008295 0.75 0 
-13.41008295 1 0 -13.41008295 1.25 0 -13.41008295 1.5 0 
-13.41008295 1.75 0 -13.41008295 2 0 -13.41008295 2.25 0 
-13.41008295 2.5 0 -13.41008295 2.75 0 -13.41008295 3 0 
-13.41008295 3.25 0 -13.41008295 3.5 0 -13.41008295 3.75 0 
-13.41008295 4 0 -13.41008295 4.25 0 -13.41008295 4.5 0 
-13.41008295 4.75 0 -13.41008295 5 0 -13.41008295 5.25 0 
-13.41008295 5.5 0 -13.41008295 5.75 0 -13.41008295 6 0 
-13.41008295 6.25 0 -13.41008295 6.5 0 -13.41008295 6.75 0 
-13.41008295 7 0 -13.41008295 7.25 0 -13.41008295 7.5 0 
-13.41008295 7.75 0 -13.41008295 8 0 -13.41008295 8.25 0 
-13.41008295 8.5 0 -13.41008295 8.75 0 -13.41008295 9 0 
-13.41008295 9.25 0 -13.41008295 9.5 0 -13.41008295 9.75 0 
-13.192167083 0.25 0 -13.192167083 0.5 0 -13.192167083 0.75 0 
-13.192167083 1 0 -13.192167083 1.25 0 -13.192167083 1.5 0 
-13.192167083 1.75 0 -13.192167083 2 0 -13.192167083 2.25 0 
-13.192167083 2.5 0 -13.192167083 2.75 0 -13.192167083 3 0 
-13.192167083 3.25 0 -13.192167083 3.5 0 -13.192167083 3.75 0 
-13.192167083 4 0 -13.192167083 4.25 0 -13.192167083 4.5 0 
-13.192167083 4.75 0 -13.192167083 5 0 -13.192167083 5.25 0 
-13.192167083 5.5 0 -13.192167083 5.75 0 -13.192167083 6 0 
-13.192167083 6.25 0 -13.192167083 6.5 0 -13.192167083 6.75 0 
-13.192167083 7 0 -13.192167083 7.25 0 -13.192167083 7.5 0 
-13.192167083 7.75 0 -13.192167083 8 0 -13.192167083 8.25 0 
-13.192167083 8.5 0 -13.192167083 8.75 0 -13.192167083 9 0 
-13.192167083 9.25 0 -13.192167083 9.5 0 -13.192167083 9.75 0 
-12.9768352 0.25 0 -12.9768352 0.5 0 -12.9768352 0.75 0 
-12.9768352 1 0 -12.9768352 1.25 0 -12.9768352 1.5 0 
-12.9768352 1.75 0 -12.9768352 2 0 -12.9768352 2.25 0 
-12.9768352 2.5 0 -12.9768352 2.75 0 -12.9768352 3 0 
-12.9768352 3.25 0 -12.9768352 3.5 0 -12.9768352 3.75 0 
-12.9768352 4 0 -12.9768352 4.25 0 -12.9768352 4.5 0 
-12.9768352 4.75 0 -12.9768352 5 0 -12.9768352 5.25 0 
-12.9768352 5.5 0 -12.9768352 5.75 0 -12.9768352 6 0 
-12.9768352 6.25 0 -12.9768352 6.5 0 -12.9768352 6.75 0 
-12.9768352 7 0 -12.9768352 7.25 0 -12.976835199 7.5 0 
-12.976835199 7.75 0 -12.976835199 8 0 -12.976835199 8.25 0 
-12.976835199 8.5 0 -12.976835199 8.75 0 -12.976835199 9 0 
-12.976835199 9.25 0 -12.976835199 9.5 0 -12.976835199 9.75 0 
-12.764056659 0.25 0 -12.764056659 0.5 0 -12.764056659 0.75 0 
-12.764056659 1 0 -12.764056659 1.25 0 -12.764056659 1.5 0 
-12.764056659 1.75 0 -12.764056659 2 0 -12.764056659 2.25 0 
-12.764056659 2.5 0 -12.764056659 2.75 0 -12.764056659 3 0 
-12.764056659 3.25 0 -12.764056659 3.5 0 -12.764056659 3.75 0 
-12.764056659 4 0 -12.764056659 4.25 0 -12.764056659 4.5 0 
-12.764056659 4.75 0 -12.764056659 5 0 -12.764056659 5.25 0 
-12.764056659 5.5 0 -12.764056659 5.75 0 -12.764056659 6 0 
-12.764056659 6.25 0 -12.764056659 6.5 0 -12.764056659 6.75 0 
-12.764056659 7 0 -12.764056659 7.25 0 -12.764056659 7.5 0 
-12.764056659 7.75 0 -12.764056659 8 0 -12.764056659 8.25 0 
-12.764056659 8.5 0 -12.764056659 8.75 0 -12.764056659 9 0 
-12.764056659 9.25 0 -12.764056659 9.5 0 -12.764056659 9.75 0 
-12.553801187 0.25 0 -12.553801187 0.5 0 -12.553801187 0.75 0 
-12.553801187 1 0 -12.553801187 1.25 0 -12.553801187 1.5 0 
-12.553801187 1.75 0 -12.553801187 2 0 -12.553801187 2.25 0 
-12.553801187 2.5 0 -12.553801187 2.75 0 -12.553801187 3 0 
-12.553801187 3.25 0 -12.553801187 3.5 0 -12.553801187 3.75 0 
-12.553801187 4 0 -12.553801187 4.25 0 -12.553801187 4.5 0 
-12.553801187 4.75 0 -12.553801187 5 0 -12.553801187 5.25 0 
-12.553801187 5.5 0 -12.553801187 5.75 0 -12.553801187 6 0 
-12.553801187 6.25 0 -12.553801187 6.5 0 -12.553801187 6.75 0 
-12.553801187 7 0 -12.553801187 7.25 0 -12.553801187 7.5 0 
-12.553801187 7.75 0 -12.553801187 8 0 -12.553801187 8.25 0 
-12.553801187 8.5 0 -12.553801187 8.75 0 -12.553801187 9 0 
-12.553801187 9.25 0 -12.553801187 9.5 0 -12.553801187 9.75 0 
-12.346038864 0.25 0 -12.346038864 0.5 0 -12.346038863 0.75 0 
-12.346038863 1 0 -12.346038863 1.25 0 -12.346038863 1.5 0 
-12.346038863 1.75 0 -12.346038863 2 0 -12.346038863 2.25 0 
-12.346038863 2.5 0 -12.346038863 2.75 0 -12.346038863 3 0 
-12.346038863 3.25 0 -12.346038863 3.5 0 -12.346038863 3.75 0 
-12.346038863 4 0 -12.346038863 4.25 0 -12.346038863 4.5 0 
-12.346038863 4.75 0 -12.346038863 5 0 -12.346038863 5.25 0 
-12.346038863 5.5 0 -12.346038863 5.75 0 -12.346038863 6 0 
-12.346038863 6.25 0 -12.346038863 6.5 0 -12.346038863 6.75 0 
-12.346038863 7 0 -12.346038863 7.25 0 -12.346038863 7.5 0 
-12.346038863 7.75 0 -12.346038863 8 0 -12.346038863 8.25 0 
-12.346038863 8.5 0 -12.346038863 8.75 0 -12.346038863 9 0 
-12.346038863 9.25 0 -12.346038863 9.5 0 -12.346038863 9.75 0 
-12.140740121 0.25 0 -12.140740121 0.5 0 -12.140740121 0.75 0 
-12.140740121 1 0 -12.140740121 1.25 0 -12.140740121 1.5 0 
-12.140740121 1.75 0 -12.140740121 2 0 -12.140740121 2.25 0 
-12.140740121 2.5 0 -12.140740121 2.75 0 -12.140740121 3 0 
-12.140740121 3.25 0 -12.140740121 3.5 0 -12.140740121 3.75 0 
-12.140740121 4 0 -12.140740121 4.25 0 -12.140740121 4.5 0 
-12.140740121 4.75 0 -12.140740121 5 0 -12.140740121 5.25 0 
-12.140740121 5.5 0 -12.140740121 5.75 0 -12.140740121 6 0 
-12.140740121 6.25 0 -12.140740121 6.5 0 -12.140740121 6.75 0 
-12.140740121 7 0 -12.140740121 7.25 0 -12.140740121 7.5 0 
-12.140740121 7.75 0 -12.140740121 8 0 -12.140740121 8.25 0 
-12.140740121 8.5 0 -12.140740121 8.75 0 -12.140740121 9 0 
-12.140740121 9.25 0 -12.140740121 9.5 0 -12.140740121 9.75 0 
-11.937875747 0.25 0 -11.937875747 0.5 0 -11.937875747 0.75 0 
-11.937875747 1 0 -11.937875747 1.25 0 -11.937875747 1.5 0 
-11.937875747 1.75 0 -11.937875747 2 0 -11.937875747 2.25 0 
-11.937875747 2.5 0 -11.937875747 2.75 0 -11.937875747 3 0 
-11.937875747 3.25 0 -11.937875747 3.5 0 -11.937875747 3.75 0 
-11.937875747 4 0 -11.937875747 4.25 0 -11.937875747 4.5 0 
-11.937875747 4.75 0 -11.937875747 5 0 -11.937875747 5.25 0 
-11.937875747 5.5 0 -11.937875747 5.75 0 -11.937875747 6 0 
-11.937875747 6.25 0 -11.937875747 6.5 0 -11.937875747 6.75 0 
-11.937875747 7 0 -11.937875747 7.25 0 -11.937875747 7.5 0 
-11.937875747 7.75 0 -11.937875747 8 0 -11.937875747 8.25 0 
-11.937875747 8.5 0 -11.937875747 8.75 0 -11.937875747 9 0 
-11.937875747 9.25 0 -11.937875747 9.5 0 -11.937875747 9.75 0 
-11.737416881 0.25 0 -11.737416881 0.5 0 -11.737416881 0.75 0 
-11.737416881 1 0 -11.737416881 1.25 0 -11.737416881 1.5 0 
-11.737416881 1.75 0 -11.737416881 2 0 -11.737416881 2.25 0 
-11.737416881 2.5 0 -11.737416881 2.75 0 -11.737416881 3 0 
-11.737416881 3.25 0 -11.737416881 3.5 0 -11.737416881 3.75 0 
-11.737416881 4 0 -11.737416881 4.25 0 -11.737416881 4.5 0 
-11.737416881 4.75 0 -11.737416881 5 0 -11.737416881 5.25 0 
-11.737416881 5.5 0 -11.737416881 5.75 0 -11.737416881 6 0 
-11.737416881 6.25 0 -11.737416881 6.5 0 -11.737416881 6.75 0 
-11.737416881 7 0 -11.737416881 7.25 0 -11.737416881 7.5 0 
-11.737416881 7.75 0 -11.737416881 8 0 -11.737416881 8.25 0 
-11.737416881 8.5 0 -11.737416881 8.75 0 -11.737416881 9 0 
-11.737416881 9.25 0 -11.737416881 9.5 0 -11.737416881 9.75 0 
-11.539335 0.25 0 -11.539335 0.5 0 -11.539335 0.75 0 
-11.539335 1 0 -11.539335 1.25 0 -11.539335 1.5 0 
-11.539335 1.75 0 -11.539335 2 0 -11.539335 2.25 0 
-11.539335 2.5 0 -11.539335 2.75 0 -11.539335 3 0 
-11.539335 3.25 0 -11.539335 3.5 0 -11.539335 3.75 0 
-11.539335 4 0 -11.539335 4.25 0 -11.539335 4.5 0 
-11.539335 4.75 0 -11.539335 5 0 -11.539335 5.25 0 
-11.539335 5.5 0 -11.539335 5.75 0 -11.539335 6 0 
-11.539335 6.25 0 -11.539335 6.5 0 -11.539335 6.75 0 
-11.539335 7 0 -11.539335 7.25 0 -11.539335 7.5 0 
-11.539335 7.75 0 -11.539335 8 0 -11.539335 8.25 0 
-11.539335 8.5 0 -11.539335 8.75 0 -11.539335 9 0 
-11.539335 9.25 0 -11.539335 9.5 0 -11.539335 9.75 0 
-11.343601917 0.25 0 -11.343601917 0.5 0 -11.343601917 0.75 0 
-11.343601917 1 0 -11.343601917 1.25 0 -11.343601917 1.5 0 
-11.343601917 1.75 0 -11.343601917 2 0 -11.343601917 2.25 0 
-11.343601917 2.5 0 -11.343601917 2.75 0 -11.343601917 3 0 
-11.343601917 3.25 0 -11.343601917 3.5 0 -11.343601917 3.75 0 
-11.343601917 4 0 -11.343601917 4.25 0 -11.343601917 4.5 0 
-11.343601917 4.75 0 -11.343601917 5 0 -11.343601917 5.25 0 
-11.343601917 5.5 0 -11.343601917 5.75 0 -11.343601917 6 0 
-11.343601917 6.25 0 -11.343601917 6.5 0 -11.343601917 6.75 0 
-11.343601917 7 0 -11.343601917 7.25 0 -11.343601917 7.5 0 
-11.343601917 7.75 0 -11.343601917 8 0 -11.343601917 8.25 0 
-11.343601917 8.5 0 -11.343601917 8.75 0 -11.343601917 9 0 
-11.343601917 9.25 0 -11.343601917 9.5 0 -11.343601917 9.75 0 
-11.15018978 0.25 0 -11.15018978 0.5 0 -11.15018978 0.75 0 
-11.15018978 1 0 -11.15018978 1.25 0 -11.15018978 1.5 0 
-11.15018978 1.75 0 -11.15018978 2 0 -11.15018978 2.25 0 
-11.15018978 2.5 0 -11.15018978 2.75 0 -11.15018978 3 0 
-11.15018978 3.25 0 -11.15018978 3.5 0 -11.15018978 3.75 0 
-11.15018978 4 0 -11.15018978 4.25 0 -11.15018978 4.5 0 
-11.15018978 4.75 0 -11.15018978 5 0 -11.15018978 5.25 0 
-11.15018978 5.5 0 -11.15018978 5.75 0 -11.15018978 6 0 
-11.15018978 6.25 0 -11.15018978 6.5 0 -11.15018978 6.75 0 
-11.15018978 7 0 -11.15018978 7.25 0 -11.15018978 7.5 0 
-11.15018978 7.75 0 -11.15018978 8 0 -11.15018978 8.25 0 
-11.15018978 8.5 0 -11.15018978 8.75 0 -11.15018978 9 0 
-11.15018978 9.25 0 -11.15018978 9.5 0 -11.15018978 9.75 0 
-10.959071065 0.25 0 -10.959071065 0.5 0 -10.959071065 0.75 0 
-10.959071065 1 0 -10.959071065 1.25 0 -10.959071065 1.5 0 
-10.959071065 1.75 0 -10.959071065 2 0 -10.959071065 2.25 0 
-10.959071065 2.5 0 -10.959071065 2.75 0 -10.959071065 3 0 
-10.959071065 3.25 0 -10.959071065 3.5 0 -10.959071065 3.75 0 
-10.959071065 4 0 -10.959071065 4.25 0 -10.959071065 4.5 0 
-10.959071065 4.75 0 -10.959071065 5 0 -10.959071065 5.25 0 
-10.959071065 5.5 0 -10.959071065 5.75 0 -10.959071065 6 0 
-10.959071065 6.25 0 -10.959071065 6.5 0 -10.959071065 6.75 0 
-10.959071065 7 0 -10.959071065 7.25 0 -10.959071065 7.5 0 
-10.959071065 7.75 0 -10.959071065 8 0 -10.959071065 8.25 0 
-10.959071065 8.5 0 -10.959071065 8.75 0 -10.959071065 9 0 
-10.959071065 9.25 0 -10.959071065 9.5 0 -10.959071065 9.75 0 
-10.770218579 0.25 0 -10.770218579 0.5 0 -10.770218579 0.75 0 
-10.770218579 1 0 -10.770218579 1.25 0 -10.770218579 1.5 0 
-10.770218579 1.75 0 -10.770218579 2 0 -10.770218579 2.25 0 
-10.770218579 2.5 0 -10.770218579 2.75 0 -10.770218579 3 0 
-10.770218579 3.25 0 -10.770218579 3.5 0 -10.770218579 3.75 0 
-10.770218579 4 0 -10.770218579 4.25 0 -10.770218579 4.5 0 
-10.770218579 4.75 0 -10.770218579 5 0 -10.770218579 5.25 0 
-10.770218579 5.5 0 -10.770218579 5.75 0 -10.770218579 6 0 
-10.770218579 6.25 0 -10.770218579 6.5 0 -10.770218579 6.75 0 
-10.770218579 7 0 -10.770218579 7.25 0 -10.770218579 7.5 0 
-10.770218579 7.75 0 -10.770218579 8 0 -10.770218579 8.25 0 
-10.770218579 8.5 0 -10.770218579 8.75 0 -10.770218579 9 0 
-10.770218579 9.25 0 -10.770218579 9.5 0 -10.770218579 9.75 0 
-10.583605452 0.25 0 -10.583605452 0.5 0 -10.583605452 0.75 0 
-10.583605452 1 0 -10.583605452 1.25 0 -10.583605452 1.5 0 
-10.583605452 1.75 0 -10.583605452 2 0 -10.583605452 2.25 0 
-10.583605452 2.5 0 -10.583605452 2.75 0 -10.583605452 3 0 
-10.583605452 3.25 0 -10.583605452 3.5 0 -10.583605452 3.75 0 
-10.583605452 4 0 -10.583605452 4.25 0 -10.583605452 4.5 0 
-10.583605452 4.75 0 -10.583605452 5 0 -10.583605452 5.25 0 
-10.583605452 5.5 0 -10.583605452 5.75 0 -10.583605452 6 0 
-10.583605452 6.25 0 -10.583605452 6.5 0 -10.583605452 6.75 0 
-10.583605452 7 0 -10.583605452 7.25 0 -10.583605452 7.5 0 
-10.583605452 7.75 0 -10.583605452 8 0 -10.583605452 8.25 0 
-10.583605452 8.5 0 -10.583605452 8.75 0 -10.583605452 9 0 
-10.583605452 9.25 0 -10.583605452 9.5 0 -10.583605452 9.75 0 
-10.399205132 0.25 0 -10.399205132 0.5 0 -10.399205132 0.75 0 
-10.399205132 1 0 -10.399205132 1.25 0 -10.399205132 1.5 0 
-10.399205132 1.75 0 -10.399205132 2 0 -10.399205132 2.25 0 
-10.399205132 2.5 0 -10.399205132 2.75 0 -10.399205132 3 0 
-10.399205132 3.25 0 -10.399205132 3.5 0 -10.399205132 3.75 0 
-10.399205132 4 0 -10.399205132 4.25 0 -10.399205132 4.5 0 
-10.399205132 4.75 0 -10.399205132 5 0 -10.399205132 5.25 0 
-10.399205132 5.5 0 -10.399205132 5.75 0 -10.399205132 6 0 
-10.399205132 6.25 0 -10.399205132 6.5 0 -10.399205132 6.75 0 
-10.399205132 7 0 -10.399205132 7.25 0 -10.399205132 7.5 0 
-10.399205132 7.75 0 -10.399205132 8 0 -10.399205132 8.25 0 
-10.399205132 8.5 0 -10.399205132 8.75 0 -10.399205132 9 0 
-10.399205132 9.25 0 -10.399205132 9.5 0 -10.399205132 9.75 0 
-10.216991374 0.25 0 -10.216991374 0.5 0 -10.216991374 0.75 0 
-10.216991374 1 0 -10.216991374 1.25 0 -10.216991374 1.5 0 
-10.216991374 1.75 0 -10.216991374 2 0 -10.216991374 2.25 0 
-10.216991374 2.5 0 -10.216991374 2.75 0 -10.216991374 3 0 
-10.216991374 3.25 0 -10.216991374 3.5 0 -10.216991374 3.75 0 
-10.216991374 4 0 -10.216991374 4.25 0 -10.216991374 4.5 0 
-10.216991374 4.75 0 -10.216991374 5 0 -10.216991374 5.25 0 
-10.216991374 5.5 0 -10.216991374 5.75 0 -10.216991374 6 0 
-10.216991374 6.25 0 -10.216991374 6.5 0 -10.216991374 6.75 0 
-10.216991374 7 0 -10.216991374 7.25 0 -10.216991374 7.5 0 
-10.216991374 7.75 0 -10.216991374 8 0 -10.216991374 8.25 0 
-10.216991374 8.5 0 -10.216991374 8.75 0 -10.216991374 9 0 
-10.216991374 9.25 0 -10.216991374 9.5 0 -10.216991374 9.75 0 
-10.03693825 0.25 0 -10.03693825 0.5 0 -10.03693825 0.75 0 
-10.03693825 1 0 -10.03693825 1.25 0 -10.03693825 1.5 0 
-10.03693825 1.75 0 -10.03693825 2 0 -10.03693825 2.25 0 
-10.03693825 2.5 0 -10.03693825 2.75 0 -10.03693825 3 0 
-10.03693825 3.25 0 -10.03693825 3.5 0 -10.03693825 3.75 0 
-10.03693825 4 0 -10.03693825 4.25 0 -10.03693825 4.5 0 
-10.03693825 4.75 0 -10.03693825 5 0 -10.03693825 5.25 0 
-10.03693825 5.5 0 -10.03693825 5.75 0 -10.03693825 6 0 
-10.03693825 6.25 0 -10.03693825 6.5 0 -10.03693825 6.75 0 
-10.03693825 7 0 -10.03693825 7.25 0 -10.03693825 7.5 0 
-10.03693825 7.75 0 -10.03693825 8 0 -10.03693825 8.25 0 
-10.03693825 8.5 0 -10.03693825 8.75 0 -10.03693825 9 0 
-10.03693825 9.25 0 -10.03693825 9.5 0 -10.03693825 9.75 0 
-9.8590201478 0.25 0 -9.8590201478 0.5 0 -9.8590201478 0.75 0 
-9.8590201478 1 0 -9.8590201478 1.25 0 -9.8590201478 1.5 0 
-9.8590201478 1.75 0 -9.8590201478 2 0 -9.8590201478 2.25 0 
-9.8590201478 2.5 0 -9.8590201478 2.75 0 -9.8590201478 3 0 
-9.8590201478 3.25 0 -9.8590201478 3.5 0 -9.8590201478 3.75 0 
-9.8590201478 4 0 -9.8590201478 4.25 0 -9.8590201478 4.5 0 
-9.8590201478 4.75 0 -9.8590201478 5 0 -9.8590201478 5.25 0 
-9.8590201478 5.5 0 -9.8590201478 5.75 0 -9.8590201478 6 0 
-9.8590201478 6.25 0 -9.8590201478 6.5 0 -9.8590201478 6.75 0 
-9.8590201478 7 0 -9.8590201478 7.25 0 -9.8590201478 7.5 0 
-9.8590201478 7.75 0 -9.8590201478 8 0 -9.8590201478 8.25 0 
-9.8590201478 8.5 0 -9.8590201478 8.75 0 -9.8590201478 9 0 
-9.8590201478 9.25 0 -9.8590201478 9.5 0 -9.8590201478 9.75 0 
-9.683211749 0.25 0 -9.683211749 0.5 0 -9.683211749 0.75 0 
-9.683211749 1 0 -9.683211749 1.25 0 -9.683211749 1.5 0 
-9.683211749 1.75 0 -9.683211749 2 0 -9.683211749 2.25 0 
-9.683211749 2.5 0 -9.683211749 2.75 0 -9.683211749 3 0 
-9.683211749 3.25 0 -9.683211749 3.5 0 -9.683211749 3.75 0 
-9.683211749 4 0 -9.683211749 4.25 0 -9.683211749 4.5 0 
-9.683211749 4.75 0 -9.683211749 5 0 -9.683211749 5.25 0 
-9.683211749 5.5 0 -9.683211749 5.75 0 -9.683211749 6 0 
-9.683211749 6.25 0 -9.683211749 6.5 0 -9.683211749 6.75 0 
-9.683211749 7 0 -9.683211749 7.25 0 -9.683211749 7.5 0 
-9.683211749 7.75 0 -9.683211749 8 0 -9.683211749 8.25 0 
-9.683211749 8.5 0 -9.683211749 8.75 0 -9.683211749 9 0 
-9.683211749 9.25 0 -9.683211749 9.5 0 -9.6832117489 9.75 0 
-9.5094880351 0.25 0 -9.5094880351 0.5 0 -9.5094880351 0.75 0 
-9.5094880351 1 0 -9.5094880351 1.25 0 -9.5094880351 1.5 0 
-9.5094880351 1.75 0 -9.5094880351 2 0 -9.5094880351 2.25 0 
-9.5094880351 2.5 0 -9.5094880351 2.75 0 -9.5094880351 3 0 
-9.5094880351 3.25 0 -9.5094880351 3.5 0 -9.5094880351 3.75 0 
-9.5094880351 4 0 -9.5094880351 4.25 0 -9.5094880351 4.5 0 
-9.5094880351 4.75 0 -9.5094880351 5 0 -9.5094880351 5.25 0 
-9.509488035 5.5 0 -9.509488035 5.75 0 -9.509488035 6 0 
-9.509488035 6.25 0 -9.509488035 6.5 0 -9.509488035 6.75 0 
-9.509488035 7 0 -9.509488035 7.25 0 -9.509488035 7.5 0 
-9.509488035 7.75 0 -9.509488035 8 0 -9.509488035 8.25 0 
-9.509488035 8.5 0 -9.509488035 8.75 0 -9.509488035 9 0 
-9.509488035 9.25 0 -9.509488035 9.5 0 -9.509488035 9.75 0 
-9.3378242827 0.25 0 -9.3378242827 0.5 0 -9.3378242827 0.75 0 
-9.3378242827 1 0 -9.3378242826 1.25 0 -9.3378242826 1.5 0 
-9.3378242826 1.75 0 -9.3378242826 2 0 -9.3378242826 2.25 0 
-9.3378242826 2.5 0 -9.3378242826 2.75 0 -9.3378242826 3 0 
-9.3378242826 3.25 0 -9.3378242826 3.5 0 -9.3378242826 3.75 0 
-9.3378242826 4 0 -9.3378242826 4.25 0 -9.3378242826 4.5 0 
-9.3378242826 4.75 0 -9.3378242826 5 0 -9.3378242826 5.25 0 
-9.3378242826 5.5 0 -9.3378242826 5.75 0 -9.3378242826 6 0 
-9.3378242826 6.25 0 -9.3378242826 6.5 0 -9.3378242826 6.75 0 
-9.3378242826 7 0 -9.3378242826 7.25 0 -9.3378242826 7.5 0 
-9.3378242826 7.75 0 -9.3378242826 8 0 -9.3378242826 8.25 0 
-9.3378242826 8.5 0 -9.3378242826 8.75 0 -9.3378242826 9 0 
-9.3378242826 9.25 0 -9.3378242826 9.5 0 -9.3378242826 9.75 0 
-9.1681960658 0.25 0 -9.1681960658 0.5 0 -9.1681960658 0.75 0 
-9.1681960658 1 0 -9.1681960658 1.25 0 -9.1681960658 1.5 0 
-9.1681960658 1.75 0 -9.1681960658 2 0 -9.1681960658 2.25 0 
-9.1681960658 2.5 0 -9.1681960658 2.75 0 -9.1681960658 3 0 
-9.1681960658 3.25 0 -9.1681960658 3.5 0 -9.1681960658 3.75 0 
-9.1681960658 4 0 -9.1681960658 4.25 0 -9.1681960658 4.5 0 
-9.1681960658 4.75 0 -9.1681960658 5 0 -9.1681960658 5.25 0 
-9.1681960658 5.5 0 -9.1681960658 5.75 0 -9.1681960658 6 0 
-9.1681960658 6.25 0 -9.1681960658 6.5 0 -9.1681960658 6.75 0 
-9.1681960658 7 0 -9.1681960658 7.25 0 -9.1681960658 7.5 0 
-9.1681960658 7.75 0 -9.1681960658 8 0 -9.1681960658 8.25 0 
-9.1681960658 8.5 0 -9.1681960658 8.75 0 -9.1681960658 9 0 
-9.1681960658 9.25 0 -9.1681960658 9.5 0 -9.1681960658 9.75 0 
-9.0005792535 0.25 0 -9.0005792535 0.5 0 -9.0005792535 0.75 0 
-9.0005792535 1 0 -9.0005792535 1.25 0 -9.0005792535 1.5 0 
-9.0005792535 1.75 0 -9.0005792535 2 0 -9.0005792535 2.25 0 
-9.0005792535 2.5 0 -9.0005792535 2.75 0 -9.0005792535 3 0 
-9.0005792535 3.25 0 -9.0005792535 3.5 0 -9.0005792535 3.75 0 
-9.0005792535 4 0 -9.0005792535 4.25 0 -9.0005792535 4.5 0 
-9.0005792535 4.75 0 -9.0005792535 5 0 -9.0005792535 5.25 0 
-9.0005792534 5.5 0 -9.0005792534 5.75 0 -9.0005792534 6 0 
-9.0005792534 6.25 0 -9.0005792534 6.5 0 -9.0005792534 6.75 0 
-9.0005792534 7 0 -9.0005792534 7.25 0 -9.0005792534 7.5 0 
-9.0005792534 7.75 0 -9.0005792534 8 0 -9.0005792534 8.25 0 
-9.0005792534 8.5 0 -9.0005792534 8.75 0 -9.0005792534 9 0 
-9.0005792534 9.25 0 -9.0005792534 9.5 0 -9.0005792534 9.75 0 
-8.8349499936 0.25 0 -8.8349499936 0.5 0 -8.8349499936 0.75 0 
-8.8349499936 1 0 -8.8349499936 1.25 0 -8.8349499936 1.5 0 
-8.8349499936 1.75 0 -8.8349499936 2 0 -8.8349499936 2.25 0 
-8.8349499936 2.5 0 -8.8349499936 2.75 0 -8.8349499936 3 0 
-8.8349499936 3.25 0 -8.8349499936 3.5 0 -8.8349499936 3.75 0 
-8.8349499936 4 0 -8.8349499936 4.25 0 -8.8349499936 4.5 0 
-8.8349499936 4.75 0 -8.8349499936 5 0 -8.8349499936 5.25 0 
-8.8349499936 5.5 0 -8.8349499936 5.75 0 -8.8349499936 6 0 
-8.8349499936 6.25 0 -8.8349499936 6.5 0 -8.8349499936 6.75 0 
-8.8349499936 7 0 -8.8349499936 7.25 0 -8.8349499936 7.5 0 
-8.8349499936 7.75 0 -8.8349499936 8 0 -8.8349499936 8.25 0 
-8.8349499936 8.5 0 -8.8349499936 8.75 0 -8.8349499936 9 0 
-8.8349499936 9.25 0 -8.8349499936 9.5 0 -8.8349499936 9.75 0 
-8.6712847156 0.25 0 -8.6712847155 0.5 0 -8.6712847155 0.75 0 
-8.6712847155 1 0 -8.6712847155 1.25 0 -8.6712847155 1.5 0 
-8.6712847155 1.75 0 -8.6712847155 2 0 -8.6712847155 2.25 0 
-8.6712847155 2.5 0 -8.6712847155 2.75 0 -8.6712847155 3 0 
-8.6712847155 3.25 0 -8.6712847155 3.5 0 -8.6712847155 3.75 0 
-8.6712847155 4 0 -8.6712847155 4.25 0 -8.6712847155 4.5 0 
-8.6712847155 4.75 0 -8.6712847155 5 0 -8.6712847155 5.25 0 
-8.6712847155 5.5 0 -8.6712847155 5.75 0 -8.6712847155 6 0 
-8.6712847155 6.25 0 -8.6712847155 6.5 0 -8.6712847155 6.75 0 
-8.6712847155 7 0 -8.6712847155 7.25 0 -8.6712847155 7.5 0 
-8.6712847155 7.75 0 -8.6712847155 8 0 -8.6712847155 8.25 0 
-8.6712847155 8.5 0 -8.6712847155 8.75 0 -8.6712847155 9 0 
-8.6712847155 9.25 0 -8.6712847155 9.5 0 -8.6712847155 9.75 0 
-8.5095601319 0.25 0 -8.5095601319 0.5 0 -8.5095601319 0.75 0 
-8.5095601319 1 0 -8.5095601319 1.25 0 -8.5095601319 1.5 0 
-8.5095601319 1.75 0 -8.5095601319 2 0 -8.5095601319 2.25 0 
-8.5095601319 2.5 0 -8.5095601319 2.75 0 -8.5095601319 3 0 
-8.5095601319 3.25 0 -8.5095601319 3.5 0 -8.5095601319 3.75 0 
-8.5095601319 4 0 -8.5095601319 4.25 0 -8.5095601319 4.5 0 
-8.5095601319 4.75 0 -8.5095601319 5 0 -8.5095601319 5.25 0 
-8.5095601319 5.5 0 -8.5095601319 5.75 0 -8.5095601319 6 0 
-8.5095601319 6.25 0 -8.5095601319 6.5 0 -8.5095601319 6.75 0 
-8.5095601319 7 0 -8.5095601319 7.25 0 -8.5095601319 7.5 0 
-8.5095601319 7.75 0 -8.5095601319 8 0 -8.5095601319 8.25 0 
-8.5095601319 8.5 0 -8.5095601319 8.75 0 -8.5095601319 9 0 
-8.5095601319 9.25 0 -8.5095601319 9.5 0 -8.5095601319 9.75 0 
-8.3497532322 0.25 0 -8.3497532322 0.5 0 -8.3497532322 0.75 0 
-8.3497532322 1 0 -8.3497532322 1.25 0 -8.3497532322 1.5 0 
-8.3497532322 1.75 0 -8.3497532322 2 0 -8.3497532322 2.25 0 
-8.3497532322 2.5 0 -8.3497532322 2.75 0 -8.3497532322 3 0 
-8.3497532322 3.25 0 -8.3497532322 3.5 0 -8.3497532322 3.75 0 
-8.3497532322 4 0 -8.3497532322 4.25 0 -8.3497532322 4.5 0 
-8.3497532322 4.75 0 -8.3497532322 5 0 -8.3497532322 5.25 0 
-8.3497532322 5.5 0 -8.3497532322 5.75 0 -8.3497532322 6 0 
-8.3497532322 6.25 0 -8.3497532322 6.5 0 -8.3497532322 6.75 0 
-8.3497532322 7 0 -8.3497532322 7.25 0 -8.3497532322 7.5 0 
-8.3497532322 7.75 0 -8.3497532322 8 0 -8.3497532322 8.25 0 
-8.3497532322 8.5 0 -8.3497532322 8.75 0 -8.3497532322 9 0 
-8.3497532322 9.25 0 -8.3497532322 9.5 0 -8.3497532322 9.75 0 
-8.1918412761 0.25 0 -8.1918412761 0.5 0 -8.1918412761 0.75 0 
-8.1918412761 1 0 -8.1918412761 1.25 0 -8.1918412761 1.5 0 
-8.1918412761 1.75 0 -8.1918412761 2 0 -8.1918412761 2.25 0 
-8.1918412761 2.5 0 -8.1918412761 2.75 0 -8.1918412761 3 0 
-8.1918412761 3.25 0 -8.1918412761 3.5 0 -8.1918412761 3.75 0 
-8.1918412761 4 0 -8.1918412761 4.25 0 -8.1918412761 4.5 0 
-8.1918412761 4.75 0 -8.1918412761 5 0 -8.1918412761 5.25 0 
-8.1918412761 5.5 0 -8.1918412761 5.75 0 -8.1918412761 6 0 
-8.1918412761 6.25 0 -8.1918412761 6.5 0 -8.1918412761 6.75 0 
-8.1918412761 7 0 -8.1918412761 7.25 0 -8.1918412761 7.5 0 
-8.1918412761 7.75 0 -8.1918412761 8 0 -8.1918412761 8.25 0 
-8.1918412761 8.5 0 -8.1918412761 8.75 0 -8.1918412761 9 0 
-8.1918412761 9.25 0 -8.1918412761 9.5 0 -8.1918412761 9.75 0 
-8.0358017916 0.25 0 -8.0358017916 0.5 0 -8.0358017916 0.75 0 
-8.0358017916 1 0 -8.0358017916 1.25 0 -8.0358017916 1.5 0 
-8.0358017916 1.75 0 -8.0358017916 2 0 -8.0358017916 2.25 0 
-8.0358017916 2.5 0 -8.0358017916 2.75 0 -8.0358017916 3 0 
-8.0358017916 3.25 0 -8.0358017916 3.5 0 -8.0358017916 3.75 0 
-8.0358017916 4 0 -8.0358017916 4.25 0 -8.0358017916 4.5 0 
-8.0358017915 4.75 0 -8.0358017915 5 0 -8.0358017915 5.25 0 
-8.0358017915 5.5 0 -8.0358017915 5.75 0 -8.0358017915 6 0 
-8.0358017915 6.25 0 -8.0358017915 6.5 0 -8.0358017915 6.75 0 
-8.0358017915 7 0 -8.0358017915 7.25 0 -8.0358017915 7.5 0 
-8.0358017915 7.75 0 -8.0358017915 8 0 -8.0358017915 8.25 0 
-8.0358017915 8.5 0 -8.0358017915 8.75 0 -8.0358017915 9 0 
-8.0358017915 9.25 0 -8.0358017915 9.5 0 -8.0358017915 9.75 0 
-7.8816125772 0.25 0 -7.8816125772 0.5 0 -7.8816125772 0.75 0 
-7.8816125772 1 0 -7.8816125772 1.25 0 -7.8816125772 1.5 0 
-7.8816125772 1.75 0 -7.8816125772 2 0 -7.8816125772 2.25 0 
-7.8816125772 2.5 0 -7.8816125772 2.75 0 -7.8816125772 3 0 
-7.8816125772 3.25 0 -7.8816125772 3.5 0 -7.8816125772 3.75 0 
-7.8816125772 4 0 -7.8816125772 4.25 0 -7.8816125772 4.5 0 
-7.8816125772 4.75 0 -7.8816125772 5 0 -7.8816125772 5.25 0 
-7.8816125772 5.5 0 -7.8816125771 5.75 0 -7.8816125771 6 0 
-7.8816125771 6.25 0 -7.8816125771 6.5 0 -7.8816125771 6.75 0 
-7.8816125771 7 0 -7.8816125771 7.25 0 -7.8816125771 7.5 0 
-7.8816125771 7.75 0 -7.8816125771 8 0 -7.8816125771 8.25 0 
-7.8816125771 8.5 0 -7.8816125771 8.75 0 -7.8816125771 9 0 
-7.8816125771 9.25 0 -7.8816125771 9.5 0 -7.8816125771 9.75 0 
-7.7292516959 0.25 0 -7.7292516959 0.5 0 -7.7292516959 0.75 0 
-7.7292516959 1 0 -7.7292516959 1.25 0 -7.7292516959 1.5 0 
-7.7292516959 1.75 0 -7.7292516959 2 0 -7.7292516959 2.25 0 
-7.7292516959 2.5 0 -7.7292516959 2.75 0 -7.7292516959 3 0 
-7.7292516959 3.25 0 -7.7292516959 3.5 0 -7.7292516959 3.75 0 
-7.7292516959 4 0 -7.7292516959 4.25 0 -7.7292516959 4.5 0 
-7.7292516959 4.75 0 -7.7292516959 5 0 -7.7292516959 5.25 0 
-7.7292516959 5.5 0 -7.7292516959 5.75 0 -7.7292516959 6 0 
-7.7292516959 6.25 0 -7.7292516959 6.5 0 -7.7292516959 6.75 0 
-7.7292516959 7 0 -7.7292516959 7.25 0 -7.7292516959 7.5 0 
-7.7292516959 7.75 0 -7.7292516959 8 0 -7.7292516959 8.25 0 
-7.7292516959 8.5 0 -7.7292516959 8.75 0 -7.7292516959 9 0 
-7.7292516959 9.25 0 -7.7292516959 9.5 0 -7.7292516959 9.75 0 
-7.5786974644 0.25 0 -7.5786974644 0.5 0 -7.5786974644 0.75 0 
-7.5786974644 1 0 -7.5786974644 1.25 0 -7.5786974644 1.5 0 
-7.5786974644 1.75 0 -7.5786974644 2 0 -7.5786974644 2.25 0 
-7.5786974644 2.5 0 -7.5786974644 2.75 0 -7.5786974644 3 0 
-7.5786974644 3.25 0 -7.5786974644 3.5 0 -7.5786974644 3.75 0 
-7.5786974644 4 0 -7.5786974644 4.25 0 -7.5786974644 4.5 0 
-7.5786974644 4.75 0 -7.5786974644 5 0 -7.5786974644 5.25 0 
-7.5786974644 5.5 0 -7.5786974644 5.75 0 -7.5786974644 6 0 
-7.5786974644 6.25 0 -7.5786974644 6.5 0 -7.5786974644 6.75 0 
-7.5786974644 7 0 -7.5786974644 7.25 0 -7.5786974644 7.5 0 
-7.5786974644 7.75 0 -7.5786974644 8 0 -7.5786974644 8.25 0 
-7.5786974644 8.5 0 -7.5786974644 8.75 0 -7.5786974644 9 0 
-7.5786974644 9.25 0 -7.5786974644 9.5 0 -7.5786974644 9.75 0 
-7.4299284603 0.25 0 -7.4299284603 0.5 0 -7.4299284603 0.75 0 
-7.4299284603 1 0 -7.4299284603 1.25 0 -7.4299284603 1.5 0 
-7.4299284603 1.75 0 -7.4299284603 2 0 -7.4299284603 2.25 0 
-7.4299284603 2.5 0 -7.4299284603 2.75 0 -7.4299284603 3 0 
-7.4299284603 3.25 0 -7.4299284603 3.5 0 -7.4299284603 3.75 0 
-7.4299284603 4 0 -7.4299284603 4.25 0 -7.4299284603 4.5 0 
-7.4299284603 4.75 0 -7.4299284603 5 0 -7.4299284603 5.25 0 
-7.4299284603 5.5 0 -7.4299284603 5.75 0 -7.4299284603 6 0 
-7.4299284603 6.25 0 -7.4299284603 6.5 0 -7.4299284603 6.75 0 
-7.4299284603 7 0 -7.4299284603 7.25 0 -7.4299284603 7.5 0 
-7.4299284603 7.75 0 -7.4299284603 8 0 -7.4299284603 8.25 0 
-7.4299284603 8.5 0 -7.4299284603 8.75 0 -7.4299284603 9 0 
-7.4299284603 9.25 0 -7.4299284603 9.5 0 -7.4299284603 9.75 0 
-7.2829235159 0.25 0 -7.2829235159 0.5 0 -7.2829235159 0.75 0 
-7.2829235159 1 0 -7.2829235159 1.25 0 -7.2829235159 1.5 0 
-7.2829235159 1.75 0 -7.2829235158 2 0 -7.2829235158 2.25 0 
-7.2829235158 2.5 0 -7.2829235158 2.75 0 -7.2829235158 3 0 
-7.2829235158 3.25 0 -7.2829235158 3.5 0 -7.2829235158 3.75 0 
-7.2829235158 4 0 -7.2829235158 4.25 0 -7.2829235158 4.5 0 
-7.2829235158 4.75 0 -7.2829235158 5 0 -7.2829235158 5.25 0 
-7.2829235158 5.5 0 -7.2829235158 5.75 0 -7.2829235158 6 0 
-7.2829235158 6.25 0 -7.2829235158 6.5 0 -7.2829235158 6.75 0 
-7.2829235158 7 0 -7.2829235158 7.25 0 -7.2829235158 7.5 0 
-7.2829235158 7.75 0 -7.2829235158 8 0 -7.2829235158 8.25 0 
-7.2829235158 8.5 0 -7.2829235158 8.75 0 -7.2829235158 9 0 
-7.2829235158 9.25 0 -7.2829235158 9.5 0 -7.2829235158 9.75 0 
-7.1376617121 0.25 0 -7.1376617121 0.5 0 -7.1376617121 0.75 0 
-7.1376617121 1 0 -7.1376617121 1.25 0 -7.1376617121 1.5 0 
-7.1376617121 1.75 0 -7.1376617121 2 0 -7.1376617121 2.25 0 
-7.1376617121 2.5 0 -7.1376617121 2.75 0 -7.1376617121 3 0 
-7.1376617121 3.25 0 -7.1376617121 3.5 0 -7.1376617121 3.75 0 
-7.1376617121 4 0 -7.1376617121 4.25 0 -7.1376617121 4.5 0 
-7.1376617121 4.75 0 -7.1376617121 5 0 -7.1376617121 5.25 0 
-7.1376617121 5.5 0 -7.1376617121 5.75 0 -7.1376617121 6 0 
-7.1376617121 6.25 0 -7.1376617121 6.5 0 -7.137661712 6.75 0 
-7.137661712 7 0 -7.137661712 7.25 0 -7.137661712 7.5 0 
-7.137661712 7.75 0 -7.137661712 8 0 -7.137661712 8.25 0 
-7.137661712 8.5 0 -7.137661712 8.75 0 -7.137661712 9 0 
-7.137661712 9.25 0 -7.137661712 9.5 0 -7.137661712 9.75 0 
-6.9941223817 0.25 0 -6.9941223817 0.5 0 -6.9941223817 0.75 0 
-6.9941223817 1 0 -6.9941223817 1.25 0 -6.9941223817 1.5 0 
-6.9941223817 1.75 0 -6.9941223817 2 0 -6.9941223817 2.25 0 
-6.9941223817 2.5 0 -6.9941223817 2.75 0 -6.9941223817 3 0 
-6.9941223817 3.25 0 -6.9941223817 3.5 0 -6.9941223817 3.75 0 
-6.9941223817 4 0 -6.9941223817 4.25 0 -6.9941223817 4.5 0 
-6.9941223817 4.75 0 -6.9941223817 5 0 -6.9941223817 5.25 0 
-6.9941223817 5.5 0 -6.9941223817 5.75 0 -6.9941223817 6 0 
-6.9941223817 6.25 0 -6.9941223817 6.5 0 -6.9941223817 6.75 0 
-6.9941223817 7 0 -6.9941223817 7.25 0 -6.9941223817 7.5 0 
-6.9941223817 7.75 0 -6.9941223817 8 0 -6.9941223817 8.25 0 
-6.9941223817 8.5 0 -6.9941223817 8.75 0 -6.9941223817 9 0 
-6.9941223817 9.25 0 -6.9941223817 9.5 0 -6.9941223816 9.75 0 
-6.8522850987 0.25 0 -6.8522850987 0.5 0 -6.8522850987 0.75 0 
-6.8522850987 1 0 -6.8522850987 1.25 0 -6.8522850987 1.5 0 
-6.8522850987 1.75 0 -6.8522850987 2 0 -6.8522850987 2.25 0 
-6.8522850987 2.5 0 -6.8522850987 2.75 0 -6.8522850987 3 0 
-6.8522850987 3.25 0 -6.8522850987 3.5 0 -6.8522850987 3.75 0 
-6.8522850987 4 0 -6.8522850987 4.25 0 -6.8522850987 4.5 0 
-6.8522850987 4.75 0 -6.8522850987 5 0 -6.8522850987 5.25 0 
-6.8522850987 5.5 0 -6.8522850987 5.75 0 -6.8522850987 6 0 
-6.8522850987 6.25 0 -6.8522850987 6.5 0 -6.8522850987 6.75 0 
-6.8522850987 7 0 -6.8522850987 7.25 0 -6.8522850987 7.5 0 
-6.8522850987 7.75 0 -6.8522850987 8 0 -6.8522850987 8.25 0 
-6.8522850987 8.5 0 -6.8522850987 8.75 0 -6.8522850987 9 0 
-6.8522850987 9.25 0 -6.8522850987 9.5 0 -6.8522850987 9.75 0 
-6.7121296816 0.25 0 -6.7121296816 0.5 0 -6.7121296816 0.75 0 
-6.7121296816 1 0 -6.7121296816 1.25 0 -6.7121296816 1.5 0 
-6.7121296816 1.75 0 -6.7121296816 2 0 -6.7121296816 2.25 0 
-6.7121296816 2.5 0 -6.7121296816 2.75 0 -6.7121296816 3 0 
-6.7121296816 3.25 0 -6.7121296816 3.5 0 -6.7121296816 3.75 0 
-6.7121296816 4 0 -6.7121296816 4.25 0 -6.7121296816 4.5 0 
-6.7121296816 4.75 0 -6.7121296816 5 0 -6.7121296816 5.25 0 
-6.7121296816 5.5 0 -6.7121296816 5.75 0 -6.7121296816 6 0 
-6.7121296816 6.25 0 -6.7121296816 6.5 0 -6.7121296816 6.75 0 
-6.7121296816 7 0 -6.7121296816 7.25 0 -6.7121296816 7.5 0 
-6.7121296816 7.75 0 -6.7121296816 8 0 -6.7121296816 8.25 0 
-6.7121296816 8.5 0 -6.7121296816 8.75 0 -6.7121296816 9 0 
-6.7121296816 9.25 0 -6.7121296816 9.5 0 -6.7121296816 9.75 0 
-6.5736361876 0.25 0 -6.5736361876 0.5 0 -6.5736361876 0.75 0 
-6.5736361876 1 0 -6.5736361876 1.25 0 -6.5736361876 1.5 0 
-6.5736361875 1.75 0 -6.5736361875 2 0 -6.5736361875 2.25 0 
-6.5736361875 2.5 0 -6.5736361875 2.75 0 -6.5736361875 3 0 
-6.5736361875 3.25 0 -6.5736361875 3.5 0 -6.5736361875 3.75 0 
-6.5736361875 4 0 -6.5736361875 4.25 0 -6.5736361875 4.5 0 
-6.5736361875 4.75 0 -6.5736361875 5 0 -6.5736361875 5.25 0 
-6.5736361875 5.5 0 -6.5736361875 5.75 0 -6.5736361875 6 0 
-6.5736361875 6.25 0 -6.5736361875 6.5 0 -6.5736361875 6.75 0 
-6.5736361875 7 0 -6.5736361875 7.25 0 -6.5736361875 7.5 0 
-6.5736361875 7.75 0 -6.5736361875 8 0 -6.5736361875 8.25 0 
-6.5736361875 8.5 0 -6.5736361875 8.75 0 -6.5736361875 9 0 
-6.5736361875 9.25 0 -6.5736361875 9.5 0 -6.5736361875 9.75 0 
-6.4367849066 0.25 0 -6.4367849066 0.5 0 -6.4367849066 0.75 0 
-6.4367849066 1 0 -6.4367849066 1.25 0 -6.4367849066 1.5 0 
-6.4367849066 1.75 0 -6.4367849066 2 0 -6.4367849066 2.25 0 
-6.4367849066 2.5 0 -6.4367849066 2.75 0 -6.4367849066 3 0 
-6.4367849066 3.25 0 -6.4367849066 3.5 0 -6.4367849066 3.75 0 
-6.4367849066 4 0 -6.4367849066 4.25 0 -6.4367849066 4.5 0 
-6.4367849066 4.75 0 -6.4367849066 5 0 -6.4367849066 5.25 0 
-6.4367849066 5.5 0 -6.4367849066 5.75 0 -6.4367849066 6 0 
-6.4367849066 6.25 0 -6.4367849066 6.5 0 -6.4367849066 6.75 0 
-6.4367849066 7 0 -6.4367849066 7.25 0 -6.4367849066 7.5 0 
-6.4367849066 7.75 0 -6.4367849066 8 0 -6.4367849066 8.25 0 
-6.4367849066 8.5 0 -6.4367849066 8.75 0 -6.4367849066 9 0 
-6.4367849066 9.25 0 -6.4367849066 9.5 0 -6.4367849066 9.75 0 
-6.3015563697 0.25 0 -6.3015563697 0.5 0 -6.3015563697 0.75 0 
-6.3015563697 1 0 -6.3015563697 1.25 0 -6.3015563697 1.5 0 
-6.3015563697 1.75 0 -6.3015563697 2 0 -6.3015563697 2.25 0 
-6.3015563697 2.5 0 -6.3015563697 2.75 0 -6.3015563697 3 0 
-6.3015563697 3.25 0 -6.3015563697 3.5 0 -6.3015563697 3.75 0 
-6.3015563697 4 0 -6.3015563697 4.25 0 -6.3015563697 4.5 0 
-6.3015563697 4.75 0 -6.3015563697 5 0 -6.3015563697 5.25 0 
-6.3015563697 5.5 0 -6.3015563697 5.75 0 -6.3015563697 6 0 
-6.3015563697 6.25 0 -6.3015563697 6.5 0 -6.3015563697 6.75 0 
-6.3015563697 7 0 -6.3015563697 7.25 0 -6.3015563697 7.5 0 
-6.3015563697 7.75 0 -6.3015563697 8 0 -6.3015563697 8.25 0 
-6.3015563697 8.5 0 -6.3015563697 8.75 0 -6.3015563697 9 0 
-6.3015563697 9.25 0 -6.3015563697 9.5 0 -6.3015563697 9.75 0 
-6.1679313339 0.25 0 -6.1679313339 0.5 0 -6.1679313339 0.75 0 
-6.1679313339 1 0 -6.1679313339 1.25 0 -6.1679313339 1.5 0 
-6.1679313339 1.75 0 -6.1679313339 2 0 -6.1679313339 2.25 0 
-6.1679313339 2.5 0 -6.1679313339 2.75 0 -6.1679313339 3 0 
-6.1679313339 3.25 0 -6.1679313339 3.5 0 -6.1679313339 3.75 0 
-6.1679313339 4 0 -6.1679313339 4.25 0 -6.1679313339 4.5 0 
-6.1679313339 4.75 0 -6.1679313339 5 0 -6.1679313339 5.25 0 
-6.1679313339 5.5 0 -6.1679313339 5.75 0 -6.1679313339 6 0 
-6.1679313339 6.25 0 -6.1679313339 6.5 0 -6.1679313339 6.75 0 
-6.1679313339 7 0 -6.1679313339 7.25 0 -6.1679313339 7.5 0 
-6.1679313339 7.75 0 -6.1679313339 8 0 -6.1679313339 8.25 0 
-6.1679313339 8.5 0 -6.1679313339 8.75 0 -6.1679313339 9 0 
-6.1679313339 9.25 0 -6.1679313339 9.5 0 -6.1679313339 9.75 0 
-6.0358907817 0.25 0 -6.0358907817 0.5 0 -6.0358907817 0.75 0 
-6.0358907817 1 0 -6.0358907817 1.25 0 -6.0358907817 1.5 0 
-6.0358907817 1.75 0 -6.0358907817 2 0 -6.0358907817 2.25 0 
-6.0358907817 2.5 0 -6.0358907817 2.75 0 -6.0358907817 3 0 
-6.0358907817 3.25 0 -6.0358907817 3.5 0 -6.0358907817 3.75 0 
-6.0358907817 4 0 -6.0358907817 4.25 0 -6.0358907817 4.5 0 
-6.0358907817 4.75 0 -6.0358907817 5 0 -6.0358907817 5.25 0 
-6.0358907817 5.5 0 -6.0358907817 5.75 0 -6.0358907817 6 0 
-6.0358907817 6.25 0 -6.0358907817 6.5 0 -6.0358907817 6.75 0 
-6.0358907817 7 0 -6.0358907817 7.25 0 -6.0358907817 7.5 0 
-6.0358907817 7.75 0 -6.0358907817 8 0 -6.0358907817 8.25 0 
-6.0358907817 8.5 0 -6.0358907817 8.75 0 -6.0358907817 9 0 
-6.0358907816 9.25 0 -6.0358907816 9.5 0 -6.0358907816 9.75 0 
-5.9054159287 0.25 0 -5.9054159287 0.5 0 -5.9054159287 0.75 0 
-5.9054159287 1 0 -5.9054159287 1.25 0 -5.9054159287 1.5 0 
-5.9054159287 1.75 0 -5.9054159287 2 0 -5.9054159287 2.25 0 
-5.9054159287 2.5 0 -5.9054159287 2.75 0 -5.9054159287 3 0 
-5.9054159287 3.25 0 -5.9054159287 3.5 0 -5.9054159287 3.75 0 
-5.9054159286 4 0 -5.9054159286 4.25 0 -5.9054159286 4.5 0 
-5.9054159286 4.75 0 -5.9054159286 5 0 -5.9054159286 5.25 0 
-5.9054159286 5.5 0 -5.9054159286 5.75 0 -5.9054159286 6 0 
-5.9054159286 6.25 0 -5.9054159286 6.5 0 -5.9054159286 6.75 0 
-5.9054159286 7 0 -5.9054159286 7.25 0 -5.9054159286 7.5 0 
-5.9054159286 7.75 0 -5.9054159286 8 0 -5.9054159286 8.25 0 
-5.9054159286 8.5 0 -5.9054159286 8.75 0 -5.9054159286 9 0 
-5.9054159286 9.25 0 -5.9054159286 9.5 0 -5.9054159286 9.75 0 
-5.7764882093 0.25 0 -5.7764882093 0.5 0 -5.7764882093 0.75 0 
-5.7764882093 1 0 -5.7764882093 1.25 0 -5.7764882093 1.5 0 
-5.7764882093 1.75 0 -5.7764882093 2 0 -5.7764882093 2.25 0 
-5.7764882093 2.5 0 -5.7764882093 2.75 0 -5.7764882093 3 0 
-5.7764882093 3.25 0 -5.7764882093 3.5 0 -5.7764882093 3.75 0 
-5.7764882093 4 0 -5.7764882093 4.25 0 -5.7764882093 4.5 0 
-5.7764882093 4.75 0 -5.7764882093 5 0 -5.7764882093 5.25 0 
-5.7764882093 5.5 0 -5.7764882093 5.75 0 -5.7764882093 6 0 
-5.7764882093 6.25 0 -5.7764882093 6.5 0 -5.7764882093 6.75 0 
-5.7764882093 7 0 -5.7764882093 7.25 0 -5.7764882093 7.5 0 
-5.7764882093 7.75 0 -5.7764882093 8 0 -5.7764882093 8.25 0 
-5.7764882093 8.5 0 -5.7764882093 8.75 0 -5.7764882093 9 0 
-5.7764882093 9.25 0 -5.7764882093 9.5 0 -5.7764882093 9.75 0 
-5.6490892763 0.25 0 -5.6490892763 0.5 0 -5.6490892763 0.75 0 
-5.6490892763 1 0 -5.6490892763 1.25 0 -5.6490892763 1.5 0 
-5.6490892763 1.75 0 -5.6490892763 2 0 -5.6490892763 2.25 0 
-5.6490892763 2.5 0 -5.6490892763 2.75 0 -5.6490892763 3 0 
-5.6490892763 3.25 0 -5.6490892763 3.5 0 -5.6490892763 3.75 0 
-5.6490892763 4 0 -5.6490892763 4.25 0 -5.6490892763 4.5 0 
-5.6490892763 4.75 0 -5.6490892763 5 0 -5.6490892763 5.25 0 
-5.6490892763 5.5 0 -5.6490892763 5.75 0 -5.6490892763 6 0 
-5.6490892763 6.25 0 -5.6490892763 6.5 0 -5.6490892763 6.75 0 
-5.6490892763 7 0 -5.6490892763 7.25 0 -5.6490892763 7.5 0 
-5.6490892763 7.75 0 -5.6490892763 8 0 -5.6490892763 8.25 0 
-5.6490892763 8.5 0 -5.6490892763 8.75 0 -5.6490892763 9 0 
-5.6490892763 9.25 0 -5.6490892763 9.5 0 -5.6490892763 9.75 0 
-5.5232010041 0.25 0 -5.5232010041 0.5 0 -5.5232010041 0.75 0 
-5.5232010041 1 0 -5.5232010041 1.25 0 -5.5232010041 1.5 0 
-5.5232010041 1.75 0 -5.5232010041 2 0 -5.5232010041 2.25 0 
-5.5232010041 2.5 0 -5.5232010041 2.75 0 -5.5232010041 3 0 
-5.5232010041 3.25 0 -5.5232010041 3.5 0 -5.5232010041 3.75 0 
-5.5232010041 4 0 -5.5232010041 4.25 0 -5.5232010041 4.5 0 
-5.5232010041 4.75 0 -5.5232010041 5 0 -5.5232010041 5.25 0 
-5.5232010041 5.5 0 -5.5232010041 5.75 0 -5.5232010041 6 0 
-5.5232010041 6.25 0 -5.5232010041 6.5 0 -5.5232010041 6.75 0 
-5.5232010041 7 0 -5.5232010041 7.25 0 -5.5232010041 7.5 0 
-5.5232010041 7.75 0 -5.5232010041 8 0 -5.5232010041 8.25 0 
-5.5232010041 8.5 0 -5.5232010041 8.75 0 -5.5232010041 9 0 
-5.5232010041 9.25 0 -5.5232010041 9.5 0 -5.5232010041 9.75 0 
-5.3988054792 0.25 0 -5.3988054792 0.5 0 -5.3988054792 0.75 0 
-5.3988054792 1 0 -5.3988054792 1.25 0 -5.3988054792 1.5 0 
-5.3988054792 1.75 0 -5.3988054792 2 0 -5.3988054792 2.25 0 
-5.3988054792 2.5 0 -5.3988054792 2.75 0 -5.3988054792 3 0 
-5.3988054792 3.25 0 -5.3988054792 3.5 0 -5.3988054792 3.75 0 
-5.3988054792 4 0 -5.3988054792 4.25 0 -5.3988054792 4.5 0 
-5.3988054792 4.75 0 -5.3988054792 5 0 -5.3988054792 5.25 0 
-5.3988054792 5.5 0 -5.3988054792 5.75 0 -5.3988054792 6 0 
-5.3988054792 6.25 0 -5.3988054792 6.5 0 -5.3988054792 6.75 0 
-5.3988054792 7 0 -5.3988054792 7.25 0 -5.3988054792 7.5 0 
-5.3988054792 7.75 0 -5.3988054792 8 0 -5.3988054792 8.25 0 
-5.3988054792 8.5 0 -5.3988054792 8.75 0 -5.3988054792 9 0 
-5.3988054792 9.25 0 -5.3988054792 9.5 0 -5.3988054792 9.75 0 
-5.2758849997 0.25 0 -5.2758849997 0.5 0 -5.2758849997 0.75 0 
-5.2758849997 1 0 -5.2758849997 1.25 0 -5.2758849997 1.5 0 
-5.2758849997 1.75 0 -5.2758849997 2 0 -5.2758849997 2.25 0 
-5.2758849997 2.5 0 -5.2758849997 2.75 0 -5.2758849997 3 0 
-5.2758849997 3.25 0 -5.2758849997 3.5 0 -5.2758849997 3.75 0 
-5.2758849997 4 0 -5.2758849997 4.25 0 -5.2758849997 4.5 0 
-5.2758849997 4.75 0 -5.2758849997 5 0 -5.2758849997 5.25 0 
-5.2758849997 5.5 0 -5.2758849997 5.75 0 -5.2758849997 6 0 
-5.2758849997 6.25 0 -5.2758849997 6.5 0 -5.2758849997 6.75 0 
-5.2758849997 7 0 -5.2758849997 7.25 0 -5.2758849997 7.5 0 
-5.2758849997 7.75 0 -5.2758849997 8 0 -5.2758849997 8.25 0 
-5.2758849997 8.5 0 -5.2758849997 8.75 0 -5.2758849997 9 0 
-5.2758849997 9.25 0 -5.2758849997 9.5 0 -5.2758849997 9.75 0 
-5.1544220747 0.25 0 -5.1544220747 0.5 0 -5.1544220747 0.75 0 
-5.1544220747 1 0 -5.1544220747 1.25 0 -5.1544220747 1.5 0 
-5.1544220747 1.75 0 -5.1544220747 2 0 -5.1544220747 2.25 0 
-5.1544220747 2.5 0 -5.1544220747 2.75 0 -5.1544220747 3 0 
-5.1544220747 3.25 0 -5.1544220747 3.5 0 -5.1544220747 3.75 0 
-5.1544220747 4 0 -5.1544220747 4.25 0 -5.1544220747 4.5 0 
-5.1544220747 4.75 0 -5.1544220747 5 0 -5.1544220747 5.25 0 
-5.1544220747 5.5 0 -5.1544220747 5.75 0 -5.1544220747 6 0 
-5.1544220747 6.25 0 -5.1544220747 6.5 0 -5.1544220747 6.75 0 
-5.1544220747 7 0 -5.1544220747 7.25 0 -5.1544220747 7.5 0 
-5.1544220747 7.75 0 -5.1544220747 8 0 -5.1544220747 8.25 0 
-5.1544220747 8.5 0 -5.1544220747 8.75 0 -5.1544220747 9 0 
-5.1544220747 9.25 0 -5.1544220747 9.5 0 -5.1544220747 9.75 0 
-5.0343994192 0.25 0 -5.0343994192 0.5 0 -5.0343994192 0.75 0 
-5.0343994192 1 0 -5.0343994192 1.25 0 -5.0343994192 1.5 0 
-5.0343994192 1.75 0 -5.0343994192 2 0 -5.0343994192 2.25 0 
-5.0343994192 2.5 0 -5.0343994192 2.75 0 -5.0343994192 3 0 
-5.0343994192 3.25 0 -5.0343994192 3.5 0 -5.0343994192 3.75 0 
-5.0343994192 4 0 -5.0343994192 4.25 0 -5.0343994192 4.5 0 
-5.0343994192 4.75 0 -5.0343994192 5 0 -5.0343994192 5.25 0 
-5.0343994192 5.5 0 -5.0343994191 5.75 0 -5.0343994191 6 0 
-5.0343994191 6.25 0 -5.0343994191 6.5 0 -5.0343994191 6.75 0 
-5.0343994191 7 0 -5.0343994191 7.25 0 -5.0343994191 7.5 0 
-5.0343994191 7.75 0 -5.0343994191 8 0 -5.0343994191 8.25 0 
-5.0343994191 8.5 0 -5.0343994191 8.75 0 -5.0343994191 9 0 
-5.0343994191 9.25 0 -5.0343994191 9.5 0 -5.0343994191 9.75 0 
-4.915799958 0.25 0 -4.915799958 0.5 0 -4.915799958 0.75 0 
-4.915799958 1 0 -4.915799958 1.25 0 -4.915799958 1.5 0 
-4.915799958 1.75 0 -4.915799958 2 0 -4.915799958 2.25 0 
-4.915799958 2.5 0 -4.915799958 2.75 0 -4.915799958 3 0 
-4.915799958 3.25 0 -4.915799958 3.5 0 -4.915799958 3.75 0 
-4.915799958 4 0 -4.915799958 4.25 0 -4.915799958 4.5 0 
-4.915799958 4.75 0 -4.915799958 5 0 -4.915799958 5.25 0 
-4.915799958 5.5 0 -4.915799958 5.75 0 -4.915799958 6 0 
-4.915799958 6.25 0 -4.915799958 6.5 0 -4.915799958 6.75 0 
-4.915799958 7 0 -4.9157999579 7.25 0 -4.9157999579 7.5 0 
-4.9157999579 7.75 0 -4.9157999579 8 0 -4.9157999579 8.25 0 
-4.9157999579 8.5 0 -4.9157999579 8.75 0 -4.9157999579 9 0 
-4.9157999579 9.25 0 -4.9157999579 9.5 0 -4.9157999579 9.75 0 
-4.7986068166 0.25 0 -4.7986068166 0.5 0 -4.7986068166 0.75 0 
-4.7986068166 1 0 -4.7986068166 1.25 0 -4.7986068166 1.5 0 
-4.7986068166 1.75 0 -4.7986068166 2 0 -4.7986068166 2.25 0 
-4.7986068166 2.5 0 -4.7986068166 2.75 0 -4.7986068166 3 0 
-4.7986068166 3.25 0 -4.7986068166 3.5 0 -4.7986068166 3.75 0 
-4.7986068166 4 0 -4.7986068166 4.25 0 -4.7986068166 4.5 0 
-4.7986068166 4.75 0 -4.7986068166 5 0 -4.7986068166 5.25 0 
-4.7986068166 5.5 0 -4.7986068166 5.75 0 -4.7986068166 6 0 
-4.7986068166 6.25 0 -4.7986068166 6.5 0 -4.7986068166 6.75 0 
-4.7986068166 7 0 -4.7986068166 7.25 0 -4.7986068166 7.5 0 
-4.7986068166 7.75 0 -4.7986068166 8 0 -4.7986068166 8.25 0 
-4.7986068166 8.5 0 -4.7986068166 8.75 0 -4.7986068166 9 0 
-4.7986068166 9.25 0 -4.7986068166 9.5 0 -4.7986068166 9.75 0 
-4.6828033163 0.25 0 -4.6828033163 0.5 0 -4.6828033163 0.75 0 
-4.6828033163 1 0 -4.6828033163 1.25 0 -4.6828033163 1.5 0 
-4.6828033163 1.75 0 -4.6828033163 2 0 -4.6828033163 2.25 0 
-4.6828033163 2.5 0 -4.6828033163 2.75 0 -4.6828033163 3 0 
-4.6828033163 3.25 0 -4.6828033163 3.5 0 -4.6828033163 3.75 0 
-4.6828033163 4 0 -4.6828033163 4.25 0 -4.6828033163 4.5 0 
-4.6828033163 4.75 0 -4.6828033163 5 0 -4.6828033163 5.25 0 
-4.6828033163 5.5 0 -4.6828033163 5.75 0 -4.6828033163 6 0 
-4.6828033163 6.25 0 -4.6828033163 6.5 0 -4.6828033163 6.75 0 
-4.6828033163 7 0 -4.6828033163 7.25 0 -4.6828033163 7.5 0 
-4.6828033163 7.75 0 -4.6828033163 8 0 -4.6828033163 8.25 0 
-4.6828033163 8.5 0 -4.6828033163 8.75 0 -4.6828033163 9 0 
-4.6828033163 9.25 0 -4.6828033163 9.5 0 -4.6828033163 9.75 0 
-4.5683729784 0.25 0 -4.5683729784 0.5 0 -4.5683729784 0.75 0 
-4.5683729784 1 0 -4.5683729784 1.25 0 -4.5683729784 1.5 0 
-4.5683729784 1.75 0 -4.5683729784 2 0 -4.5683729784 2.25 0 
-4.5683729784 2.5 0 -4.5683729784 2.75 0 -4.5683729784 3 0 
-4.5683729784 3.25 0 -4.5683729784 3.5 0 -4.5683729784 3.75 0 
-4.5683729784 4 0 -4.5683729784 4.25 0 -4.5683729784 4.5 0 
-4.5683729784 4.75 0 -4.5683729784 5 0 -4.5683729784 5.25 0 
-4.5683729784 5.5 0 -4.5683729784 5.75 0 -4.5683729784 6 0 
-4.5683729784 6.25 0 -4.5683729784 6.5 0 -4.5683729784 6.75 0 
-4.5683729784 7 0 -4.5683729784 7.25 0 -4.5683729784 7.5 0 
-4.5683729784 7.75 0 -4.5683729784 8 0 -4.5683729784 8.25 0 
-4.5683729784 8.5 0 -4.5683729784 8.75 0 -4.5683729784 9 0 
-4.5683729784 9.25 0 -4.5683729784 9.5 0 -4.5683729784 9.75 0 
-4.4552995239 0.25 0 -4.4552995239 0.5 0 -4.4552995239 0.75 0 
-4.4552995239 1 0 -4.4552995239 1.25 0 -4.4552995239 1.5 0 
-4.4552995239 1.75 0 -4.4552995239 2 0 -4.4552995239 2.25 0 
-4.4552995239 2.5 0 -4.4552995239 2.75 0 -4.4552995239 3 0 
-4.4552995239 3.25 0 -4.4552995239 3.5 0 -4.4552995239 3.75 0 
-4.4552995239 4 0 -4.4552995239 4.25 0 -4.4552995239 4.5 0 
-4.4552995239 4.75 0 -4.4552995239 5 0 -4.4552995239 5.25 0 
-4.4552995239 5.5 0 -4.4552995239 5.75 0 -4.4552995239 6 0 
-4.4552995239 6.25 0 -4.4552995239 6.5 0 -4.4552995239 6.75 0 
-4.4552995239 7 0 -4.4552995239 7.25 0 -4.4552995239 7.5 0 
-4.4552995239 7.75 0 -4.4552995239 8 0 -4.4552995239 8.25 0 
-4.4552995239 8.5 0 -4.4552995239 8.75 0 -4.4552995239 9 0 
-4.4552995239 9.25 0 -4.4552995239 9.5 0 -4.4552995239 9.75 0 
-4.3435668643 0.25 0 -4.3435668643 0.5 0 -4.3435668643 0.75 0 
-4.3435668643 1 0 -4.3435668643 1.25 0 -4.3435668643 1.5 0 
-4.3435668643 1.75 0 -4.3435668643 2 0 -4.3435668643 2.25 0 
-4.3435668643 2.5 0 -4.3435668643 2.75 0 -4.3435668643 3 0 
-4.3435668643 3.25 0 -4.3435668643 3.5 0 -4.3435668643 3.75 0 
-4.3435668643 4 0 -4.3435668643 4.25 0 -4.3435668643 4.5 0 
-4.3435668643 4.75 0 -4.3435668643 5 0 -4.3435668642 5.25 0 
-4.3435668642 5.5 0 -4.3435668642 5.75 0 -4.3435668642 6 0 
-4.3435668642 6.25 0 -4.3435668642 6.5 0 -4.3435668642 6.75 0 
-4.3435668642 7 0 -4.3435668642 7.25 0 -4.3435668642 7.5 0 
-4.3435668642 7.75 0 -4.3435668642 8 0 -4.3435668642 8.25 0 
-4.3435668642 8.5 0 -4.3435668642 8.75 0 -4.3435668642 9 0 
-4.3435668642 9.25 0 -4.3435668642 9.5 0 -4.3435668642 9.75 0 
-4.2331590971 0.25 0 -4.2331590971 0.5 0 -4.2331590971 0.75 0 
-4.2331590971 1 0 -4.2331590971 1.25 0 -4.2331590971 1.5 0 
-4.2331590971 1.75 0 -4.2331590971 2 0 -4.2331590971 2.25 0 
-4.2331590971 2.5 0 -4.2331590971 2.75 0 -4.2331590971 3 0 
-4.2331590971 3.25 0 -4.2331590971 3.5 0 -4.2331590971 3.75 0 
-4.2331590971 4 0 -4.2331590971 4.25 0 -4.2331590971 4.5 0 
-4.2331590971 4.75 0 -4.2331590971 5 0 -4.2331590971 5.25 0 
-4.2331590971 5.5 0 -4.2331590971 5.75 0 -4.2331590971 6 0 
-4.2331590971 6.25 0 -4.2331590971 6.5 0 -4.2331590971 6.75 0 
-4.2331590971 7 0 -4.2331590971 7.25 0 -4.2331590971 7.5 0 
-4.2331590971 7.75 0 -4.2331590971 8 0 -4.2331590971 8.25 0 
-4.2331590971 8.5 0 -4.2331590971 8.75 0 -4.2331590971 9 0 
-4.2331590971 9.25 0 -4.2331590971 9.5 0 -4.2331590971 9.75 0 
-4.1240605105 0.25 0 -4.1240605105 0.5 0 -4.1240605105 0.75 0 
-4.1240605105 1 0 -4.1240605105 1.25 0 -4.1240605105 1.5 0 
-4.1240605105 1.75 0 -4.1240605105 2 0 -4.1240605105 2.25 0 
-4.1240605105 2.5 0 -4.1240605105 2.75 0 -4.1240605105 3 0 
-4.1240605105 3.25 0 -4.1240605105 3.5 0 -4.1240605105 3.75 0 
-4.1240605105 4 0 -4.1240605105 4.25 0 -4.1240605105 4.5 0 
-4.1240605105 4.75 0 -4.1240605105 5 0 -4.1240605105 5.25 0 
-4.1240605105 5.5 0 -4.1240605105 5.75 0 -4.1240605105 6 0 
-4.1240605105 6.25 0 -4.1240605105 6.5 0 -4.1240605105 6.75 0 
-4.1240605105 7 0 -4.1240605105 7.25 0 -4.1240605105 7.5 0 
-4.1240605105 7.75 0 -4.1240605105 8 0 -4.1240605105 8.25 0 
-4.1240605105 8.5 0 -4.1240605105 8.75 0 -4.1240605105 9 0 
-4.1240605105 9.25 0 -4.1240605105 9.5 0 -4.1240605105 9.75 0 
-4.016255583 0.25 0 -4.016255583 0.5 0 -4.016255583 0.75 0 
-4.016255583 1 0 -4.016255583 1.25 0 -4.016255583 1.5 0 
-4.016255583 1.75 0 -4.016255583 2 0 -4.016255583 2.25 0 
-4.016255583 2.5 0 -4.016255583 2.75 0 -4.016255583 3 0 
-4.016255583 3.25 0 -4.016255583 3.5 0 -4.016255583 3.75 0 
-4.016255583 4 0 -4.016255583 4.25 0 -4.016255583 4.5 0 
-4.016255583 4.75 0 -4.016255583 5 0 -4.0162555829 5.25 0 
-4.0162555829 5.5 0 -4.0162555829 5.75 0 -4.0162555829 6 0 
-4.0162555829 6.25 0 -4.0162555829 6.5 0 -4.0162555829 6.75 0 
-4.0162555829 7 0 -4.0162555829 7.25 0 -4.0162555829 7.5 0 
-4.0162555829 7.75 0 -4.0162555829 8 0 -4.0162555829 8.25 0 
-4.0162555829 8.5 0 -4.0162555829 8.75 0 -4.0162555829 9 0 
-4.0162555829 9.25 0 -4.0162555829 9.5 0 -4.0162555829 9.75 0 
-3.9097289743 0.25 0 -3.9097289743 0.5 0 -3.9097289743 0.75 0 
-3.9097289743 1 0 -3.9097289743 1.25 0 -3.9097289743 1.5 0 
-3.9097289743 1.75 0 -3.9097289743 2 0 -3.9097289743 2.25 0 
-3.9097289743 2.5 0 -3.9097289743 2.75 0 -3.9097289743 3 0 
-3.9097289743 3.25 0 -3.9097289743 3.5 0 -3.9097289743 3.75 0 
-3.9097289743 4 0 -3.9097289743 4.25 0 -3.9097289743 4.5 0 
-3.9097289743 4.75 0 -3.9097289743 5 0 -3.9097289743 5.25 0 
-3.9097289743 5.5 0 -3.9097289743 5.75 0 -3.9097289743 6 0 
-3.9097289743 6.25 0 -3.9097289743 6.5 0 -3.9097289743 6.75 0 
-3.9097289743 7 0 -3.9097289743 7.25 0 -3.9097289743 7.5 0 
-3.9097289743 7.75 0 -3.9097289743 8 0 -3.9097289743 8.25 0 
-3.9097289743 8.5 0 -3.9097289743 8.75 0 -3.9097289743 9 0 
-3.9097289743 9.25 0 -3.9097289743 9.5 0 -3.9097289743 9.75 0 
-3.8044655262 0.25 0 -3.8044655262 0.5 0 -3.8044655262 0.75 0 
-3.8044655262 1 0 -3.8044655262 1.25 0 -3.8044655262 1.5 0 
-3.8044655262 1.75 0 -3.8044655262 2 0 -3.8044655262 2.25 0 
-3.8044655262 2.5 0 -3.8044655262 2.75 0 -3.8044655262 3 0 
-3.8044655262 3.25 0 -3.8044655262 3.5 0 -3.8044655262 3.75 0 
-3.8044655262 4 0 -3.8044655262 4.25 0 -3.8044655262 4.5 0 
-3.8044655262 4.75 0 -3.8044655262 5 0 -3.8044655262 5.25 0 
-3.8044655262 5.5 0 -3.8044655262 5.75 0 -3.8044655262 6 0 
-3.8044655262 6.25 0 -3.8044655262 6.5 0 -3.8044655262 6.75 0 
-3.8044655262 7 0 -3.8044655262 7.25 0 -3.8044655262 7.5 0 
-3.8044655262 7.75 0 -3.8044655262 8 0 -3.8044655262 8.25 0 
-3.8044655262 8.5 0 -3.8044655262 8.75 0 -3.8044655262 9 0 
-3.8044655262 9.25 0 -3.8044655262 9.5 0 -3.8044655262 9.75 0 
-3.7004502618 0.25 0 -3.7004502618 0.5 0 -3.7004502618 0.75 0 
-3.7004502618 1 0 -3.7004502618 1.25 0 -3.7004502618 1.5 0 
-3.7004502618 1.75 0 -3.7004502618 2 0 -3.7004502618 2.25 0 
-3.7004502618 2.5 0 -3.7004502618 2.75 0 -3.7004502618 3 0 
-3.7004502618 3.25 0 -3.7004502618 3.5 0 -3.7004502618 3.75 0 
-3.7004502618 4 0 -3.7004502618 4.25 0 -3.7004502618 4.5 0 
-3.7004502618 4.75 0 -3.7004502618 5 0 -3.7004502618 5.25 0 
-3.7004502618 5.5 0 -3.7004502618 5.75 0 -3.7004502618 6 0 
-3.7004502618 6.25 0 -3.7004502618 6.5 0 -3.7004502618 6.75 0 
-3.7004502618 7 0 -3.7004502618 7.25 0 -3.7004502618 7.5 0 
-3.7004502618 7.75 0 -3.7004502618 8 0 -3.7004502618 8.25 0 
-3.7004502618 8.5 0 -3.7004502618 8.75 0 -3.7004502618 9 0 
-3.7004502618 9.25 0 -3.7004502618 9.5 0 -3.7004502618 9.75 0 
-3.5976683776 0.25 0 -3.5976683776 0.5 0 -3.5976683776 0.75 0 
-3.5976683776 1 0 -3.5976683776 1.25 0 -3.5976683776 1.5 0 
-3.5976683776 1.75 0 -3.5976683776 2 0 -3.5976683776 2.25 0 
-3.5976683776 2.5 0 -3.5976683776 2.75 0 -3.5976683776 3 0 
-3.5976683776 3.25 0 -3.5976683776 3.5 0 -3.5976683776 3.75 0 
-3.5976683776 4 0 -3.5976683776 4.25 0 -3.5976683776 4.5 0 
-3.5976683776 4.75 0 -3.5976683776 5 0 -3.5976683776 5.25 0 
-3.5976683776 5.5 0 -3.5976683776 5.75 0 -3.5976683776 6 0 
-3.5976683776 6.25 0 -3.5976683776 6.5 0 -3.5976683776 6.75 0 
-3.5976683776 7 0 -3.5976683776 7.25 0 -3.5976683776 7.5 0 
-3.5976683776 7.75 0 -3.5976683776 8 0 -3.5976683776 8.25 0 
-3.5976683776 8.5 0 -3.5976683776 8.75 0 -3.5976683776 9 0 
-3.5976683776 9.25 0 -3.5976683776 9.5 0 -3.5976683776 9.75 0 
-3.4961052517 0.25 0 -3.4961052517 0.5 0 -3.4961052517 0.75 0 
-3.4961052517 1 0 -3.4961052517 1.25 0 -3.4961052517 1.5 0 
-3.4961052517 1.75 0 -3.4961052517 2 0 -3.4961052517 2.25 0 
-3.4961052517 2.5 0 -3.4961052517 2.75 0 -3.4961052517 3 0 
-3.4961052517 3.25 0 -3.4961052517 3.5 0 -3.4961052517 3.75 0 
-3.4961052517 4 0 -3.4961052517 4.25 0 -3.4961052517 4.5 0 
-3.4961052517 4.75 0 -3.4961052517 5 0 -3.4961052517 5.25 0 
-3.4961052517 5.5 0 -3.4961052517 5.75 0 -3.4961052517 6 0 
-3.4961052517 6.25 0 -3.4961052517 6.5 0 -3.4961052517 6.75 0 
-3.4961052517 7 0 -3.4961052517 7.25 0 -3.4961052517 7.5 0 
-3.4961052517 7.75 0 -3.4961052517 8 0 -3.4961052517 8.25 0 
-3.4961052517 8.5 0 -3.4961052517 8.75 0 -3.4961052517 9 0 
-3.4961052517 9.25 0 -3.4961052517 9.5 0 -3.4961052517 9.75 0 
-3.3957464319 0.25 0 -3.3957464319 0.5 0 -3.3957464319 0.75 0 
-3.3957464319 1 0 -3.3957464319 1.25 0 -3.3957464319 1.5 0 
-3.3957464319 1.75 0 -3.3957464319 2 0 -3.3957464319 2.25 0 
-3.3957464319 2.5 0 -3.3957464319 2.75 0 -3.3957464319 3 0 
-3.3957464319 3.25 0 -3.3957464319 3.5 0 -3.3957464319 3.75 0 
-3.3957464319 4 0 -3.3957464319 4.25 0 -3.3957464319 4.5 0 
-3.3957464319 4.75 0 -3.3957464319 5 0 -3.3957464319 5.25 0 
-3.3957464319 5.5 0 -3.3957464319 5.75 0 -3.3957464319 6 0 
-3.3957464319 6.25 0 -3.3957464319 6.5 0 -3.3957464319 6.75 0 
-3.3957464319 7 0 -3.3957464319 7.25 0 -3.3957464319 7.5 0 
-3.3957464319 7.75 0 -3.3957464319 8 0 -3.3957464319 8.25 0 
-3.3957464319 8.5 0 -3.3957464319 8.75 0 -3.3957464319 9 0 
-3.3957464319 9.25 0 -3.3957464319 9.5 0 -3.3957464319 9.75 0 
-3.2965776352 0.25 0 -3.2965776352 0.5 0 -3.2965776352 0.75 0 
-3.2965776352 1 0 -3.2965776352 1.25 0 -3.2965776352 1.5 0 
-3.2965776352 1.75 0 -3.2965776352 2 0 -3.2965776352 2.25 0 
-3.2965776352 2.5 0 -3.2965776352 2.75 0 -3.2965776352 3 0 
-3.2965776352 3.25 0 -3.2965776352 3.5 0 -3.2965776352 3.75 0 
-3.2965776352 4 0 -3.2965776352 4.25 0 -3.2965776352 4.5 0 
-3.2965776352 4.75 0 -3.2965776352 5 0 -3.2965776352 5.25 0 
-3.2965776352 5.5 0 -3.2965776352 5.75 0 -3.2965776352 6 0 
-3.2965776352 6.25 0 -3.2965776352 6.5 0 -3.2965776352 6.75 0 
-3.2965776352 7 0 -3.2965776352 7.25 0 -3.2965776352 7.5 0 
-3.2965776352 7.75 0 -3.2965776352 8 0 -3.2965776352 8.25 0 
-3.2965776352 8.5 0 -3.2965776352 8.75 0 -3.2965776352 9 0 
-3.2965776351 9.25 0 -3.2965776351 9.5 0 -3.2965776351 9.75 0 
-3.1985847571 0.25 0 -3.1985847571 0.5 0 -3.1985847571 0.75 0 
-3.1985847571 1 0 -3.1985847571 1.25 0 -3.1985847571 1.5 0 
-3.1985847571 1.75 0 -3.1985847571 2 0 -3.1985847571 2.25 0 
-3.1985847571 2.5 0 -3.1985847571 2.75 0 -3.1985847571 3 0 
-3.1985847571 3.25 0 -3.1985847571 3.5 0 -3.1985847571 3.75 0 
-3.1985847571 4 0 -3.1985847571 4.25 0 -3.1985847571 4.5 0 
-3.1985847571 4.75 0 -3.1985847571 5 0 -3.1985847571 5.25 0 
-3.198584757 5.5 0 -3.198584757 5.75 0 -3.198584757 6 0 
-3.198584757 6.25 0 -3.198584757 6.5 0 -3.198584757 6.75 0 
-3.198584757 7 0 -3.198584757 7.25 0 -3.198584757 7.5 0 
-3.198584757 7.75 0 -3.198584757 8 0 -3.198584757 8.25 0 
-3.198584757 8.5 0 -3.198584757 8.75 0 -3.198584757 9 0 
-3.198584757 9.25 0 -3.198584757 9.5 0 -3.198584757 9.75 0 
-3.1017538501 0.25 0 -3.1017538501 0.5 0 -3.1017538501 0.75 0 
-3.1017538501 1 0 -3.1017538501 1.25 0 -3.1017538501 1.5 0 
-3.1017538501 1.75 0 -3.1017538501 2 0 -3.1017538501 2.25 0 
-3.1017538501 2.5 0 -3.1017538501 2.75 0 -3.1017538501 3 0 
-3.1017538501 3.25 0 -3.1017538501 3.5 0 -3.1017538501 3.75 0 
-3.1017538501 4 0 -3.1017538501 4.25 0 -3.10175385 4.5 0 
-3.10175385 4.75 0 -3.10175385 5 0 -3.10175385 5.25 0 
-3.10175385 5.5 0 -3.10175385 5.75 0 -3.10175385 6 0 
-3.10175385 6.25 0 -3.10175385 6.5 0 -3.10175385 6.75 0 
-3.10175385 7 0 -3.10175385 7.25 0 -3.10175385 7.5 0 
-3.10175385 7.75 0 -3.10175385 8 0 -3.10175385 8.25 0 
-3.10175385 8.5 0 -3.10175385 8.75 0 -3.10175385 9 0 
-3.10175385 9.25 0 -3.10175385 9.5 0 -3.10175385 9.75 0 
-3.006071133 0.25 0 -3.006071133 0.5 0 -3.006071133 0.75 0 
-3.006071133 1 0 -3.006071133 1.25 0 -3.006071133 1.5 0 
-3.006071133 1.75 0 -3.006071133 2 0 -3.006071133 2.25 0 
-3.006071133 2.5 0 -3.006071133 2.75 0 -3.006071133 3 0 
-3.006071133 3.25 0 -3.006071133 3.5 0 -3.006071133 3.75 0 
-3.006071133 4 0 -3.006071133 4.25 0 -3.006071133 4.5 0 
-3.006071133 4.75 0 -3.006071133 5 0 -3.006071133 5.25 0 
-3.006071133 5.5 0 -3.006071133 5.75 0 -3.006071133 6 0 
-3.006071133 6.25 0 -3.006071133 6.5 0 -3.006071133 6.75 0 
-3.006071133 7 0 -3.006071133 7.25 0 -3.006071133 7.5 0 
-3.006071133 7.75 0 -3.006071133 8 0 -3.006071133 8.25 0 
-3.006071133 8.5 0 -3.006071133 8.75 0 -3.006071133 9 0 
-3.006071133 9.25 0 -3.006071133 9.5 0 -3.006071133 9.75 0 
-2.911522996 0.25 0 -2.911522996 0.5 0 -2.911522996 0.75 0 
-2.911522996 1 0 -2.911522996 1.25 0 -2.911522996 1.5 0 
-2.911522996 1.75 0 -2.911522996 2 0 -2.911522996 2.25 0 
-2.911522996 2.5 0 -2.911522996 2.75 0 -2.911522996 3 0 
-2.911522996 3.25 0 -2.911522996 3.5 0 -2.911522996 3.75 0 
-2.911522996 4 0 -2.911522996 4.25 0 -2.911522996 4.5 0 
-2.911522996 4.75 0 -2.911522996 5 0 -2.911522996 5.25 0 
-2.911522996 5.5 0 -2.911522996 5.75 0 -2.911522996 6 0 
-2.911522996 6.25 0 -2.911522996 6.5 0 -2.911522996 6.75 0 
-2.911522996 7 0 -2.911522996 7.25 0 -2.911522996 7.5 0 
-2.911522996 7.75 0 -2.911522996 8 0 -2.911522996 8.25 0 
-2.911522996 8.5 0 -2.911522996 8.75 0 -2.911522996 9 0 
-2.911522996 9.25 0 -2.911522996 9.5 0 -2.911522996 9.75 0 
-2.8180959831 0.25 0 -2.8180959831 0.5 0 -2.8180959831 0.75 0 
-2.8180959831 1 0 -2.8180959831 1.25 0 -2.8180959831 1.5 0 
-2.8180959831 1.75 0 -2.8180959831 2 0 -2.8180959831 2.25 0 
-2.8180959831 2.5 0 -2.8180959831 2.75 0 -2.8180959831 3 0 
-2.8180959831 3.25 0 -2.8180959831 3.5 0 -2.8180959831 3.75 0 
-2.8180959831 4 0 -2.8180959831 4.25 0 -2.8180959831 4.5 0 
-2.8180959831 4.75 0 -2.8180959831 5 0 -2.8180959831 5.25 0 
-2.8180959831 5.5 0 -2.8180959831 5.75 0 -2.8180959831 6 0 
-2.8180959831 6.25 0 -2.8180959831 6.5 0 -2.8180959831 6.75 0 
-2.8180959831 7 0 -2.8180959831 7.25 0 -2.8180959831 7.5 0 
-2.8180959831 7.75 0 -2.8180959831 8 0 -2.8180959831 8.25 0 
-2.8180959831 8.5 0 -2.8180959831 8.75 0 -2.8180959831 9 0 
-2.8180959831 9.25 0 -2.8180959831 9.5 0 -2.8180959831 9.75 0 
-2.7257767973 0.25 0 -2.7257767973 0.5 0 -2.7257767973 0.75 0 
-2.7257767973 1 0 -2.7257767973 1.25 0 -2.7257767973 1.5 0 
-2.7257767973 1.75 0 -2.7257767973 2 0 -2.7257767973 2.25 0 
-2.7257767973 2.5 0 -2.7257767973 2.75 0 -2.7257767973 3 0 
-2.7257767973 3.25 0 -2.7257767973 3.5 0 -2.7257767973 3.75 0 
-2.7257767973 4 0 -2.7257767973 4.25 0 -2.7257767973 4.5 0 
-2.7257767973 4.75 0 -2.7257767973 5 0 -2.7257767973 5.25 0 
-2.7257767973 5.5 0 -2.7257767973 5.75 0 -2.7257767973 6 0 
-2.7257767973 6.25 0 -2.7257767973 6.5 0 -2.7257767973 6.75 0 
-2.7257767973 7 0 -2.7257767973 7.25 0 -2.7257767973 7.5 0 
-2.7257767973 7.75 0 -2.7257767973 8 0 -2.7257767973 8.25 0 
-2.7257767973 8.5 0 -2.7257767973 8.75 0 -2.7257767973 9 0 
-2.7257767973 9.25 0 -2.7257767973 9.5 0 -2.7257767973 9.75 0 
-2.6345523061 0.25 0 -2.6345523061 0.5 0 -2.6345523061 0.75 0 
-2.6345523061 1 0 -2.6345523061 1.25 0 -2.6345523061 1.5 0 
-2.6345523061 1.75 0 -2.6345523061 2 0 -2.6345523061 2.25 0 
-2.6345523061 2.5 0 -2.6345523061 2.75 0 -2.6345523061 3 0 
-2.6345523061 3.25 0 -2.6345523061 3.5 0 -2.6345523061 3.75 0 
-2.6345523061 4 0 -2.6345523061 4.25 0 -2.6345523061 4.5 0 
-2.6345523061 4.75 0 -2.6345523061 5 0 -2.6345523061 5.25 0 
-2.6345523061 5.5 0 -2.6345523061 5.75 0 -2.6345523061 6 0 
-2.6345523061 6.25 0 -2.6345523061 6.5 0 -2.6345523061 6.75 0 
-2.6345523061 7 0 -2.6345523061 7.25 0 -2.6345523061 7.5 0 
-2.6345523061 7.75 0 -2.6345523061 8 0 -2.6345523061 8.25 0 
-2.6345523061 8.5 0 -2.6345523061 8.75 0 -2.6345523061 9 0 
-2.6345523061 9.25 0 -2.6345523061 9.5 0 -2.6345523061 9.75 0 
-2.5444095283 0.25 0 -2.5444095283 0.5 0 -2.5444095283 0.75 0 
-2.5444095283 1 0 -2.5444095283 1.25 0 -2.5444095283 1.5 0 
-2.5444095283 1.75 0 -2.5444095283 2 0 -2.5444095283 2.25 0 
-2.5444095283 2.5 0 -2.5444095283 2.75 0 -2.5444095283 3 0 
-2.5444095283 3.25 0 -2.5444095283 3.5 0 -2.5444095283 3.75 0 
-2.5444095283 4 0 -2.5444095283 4.25 0 -2.5444095283 4.5 0 
-2.5444095283 4.75 0 -2.5444095283 5 0 -2.5444095283 5.25 0 
-2.5444095283 5.5 0 -2.5444095283 5.75 0 -2.5444095283 6 0 
-2.5444095283 6.25 0 -2.5444095283 6.5 0 -2.5444095283 6.75 0 
-2.5444095283 7 0 -2.5444095283 7.25 0 -2.5444095283 7.5 0 
-2.5444095283 7.75 0 -2.5444095283 8 0 -2.5444095283 8.25 0 
-2.5444095283 8.5 0 -2.5444095283 8.75 0 -2.5444095283 9 0 
-2.5444095283 9.25 0 -2.5444095283 9.5 0 -2.5444095283 9.75 0 
-2.4553356352 0.25 0 -2.4553356352 0.5 0 -2.4553356352 0.75 0 
-2.4553356352 1 0 -2.4553356352 1.25 0 -2.4553356352 1.5 0 
-2.4553356352 1.75 0 -2.4553356352 2 0 -2.4553356352 2.25 0 
-2.4553356352 2.5 0 -2.4553356352 2.75 0 -2.4553356352 3 0 
-2.4553356352 3.25 0 -2.4553356352 3.5 0 -2.4553356352 3.75 0 
-2.4553356352 4 0 -2.4553356352 4.25 0 -2.4553356352 4.5 0 
-2.4553356352 4.75 0 -2.4553356352 5 0 -2.4553356352 5.25 0 
-2.4553356352 5.5 0 -2.4553356352 5.75 0 -2.4553356352 6 0 
-2.4553356352 6.25 0 -2.4553356352 6.5 0 -2.4553356352 6.75 0 
-2.4553356352 7 0 -2.4553356352 7.25 0 -2.4553356352 7.5 0 
-2.4553356352 7.75 0 -2.4553356352 8 0 -2.4553356352 8.25 0 
-2.4553356352 8.5 0 -2.4553356352 8.75 0 -2.4553356352 9 0 
-2.4553356352 9.25 0 -2.4553356352 9.5 0 -2.4553356352 9.75 0 
-2.3673179555 0.25 0 -2.3673179555 0.5 0 -2.3673179555 0.75 0 
-2.3673179555 1 0 -2.3673179555 1.25 0 -2.3673179555 1.5 0 
-2.3673179555 1.75 0 -2.3673179555 2 0 -2.3673179555 2.25 0 
-2.3673179555 2.5 0 -2.3673179555 2.75 0 -2.3673179555 3 0 
-2.3673179555 3.25 0 -2.3673179555 3.5 0 -2.3673179555 3.75 0 
-2.3673179555 4 0 -2.3673179555 4.25 0 -2.3673179555 4.5 0 
-2.3673179555 4.75 0 -2.3673179555 5 0 -2.3673179555 5.25 0 
-2.3673179555 5.5 0 -2.3673179555 5.75 0 -2.3673179555 6 0 
-2.3673179555 6.25 0 -2.3673179555 6.5 0 -2.3673179555 6.75 0 
-2.3673179555 7 0 -2.3673179555 7.25 0 -2.3673179555 7.5 0 
-2.3673179555 7.75 0 -2.3673179555 8 0 -2.3673179555 8.25 0 
-2.3673179555 8.5 0 -2.3673179555 8.75 0 -2.3673179555 9 0 
-2.3673179555 9.25 0 -2.3673179555 9.5 0 -2.3673179555 9.75 0 
-2.2803439674 0.25 0 -2.2803439674 0.5 0 -2.2803439674 0.75 0 
-2.2803439674 1 0 -2.2803439674 1.25 0 -2.2803439674 1.5 0 
-2.2803439674 1.75 0 -2.2803439674 2 0 -2.2803439674 2.25 0 
-2.2803439674 2.5 0 -2.2803439674 2.75 0 -2.2803439674 3 0 
-2.2803439674 3.25 0 -2.2803439674 3.5 0 -2.2803439674 3.75 0 
-2.2803439674 4 0 -2.2803439674 4.25 0 -2.2803439674 4.5 0 
-2.2803439674 4.75 0 -2.2803439674 5 0 -2.2803439674 5.25 0 
-2.2803439674 5.5 0 -2.2803439674 5.75 0 -2.2803439674 6 0 
-2.2803439674 6.25 0 -2.2803439674 6.5 0 -2.2803439674 6.75 0 
-2.2803439674 7 0 -2.2803439674 7.25 0 -2.2803439674 7.5 0 
-2.2803439674 7.75 0 -2.2803439674 8 0 -2.2803439674 8.25 0 
-2.2803439674 8.5 0 -2.2803439674 8.75 0 -2.2803439674 9 0 
-2.2803439674 9.25 0 -2.2803439674 9.5 0 -2.2803439674 9.75 0 
-2.1944012905 0.25 0 -2.1944012905 0.5 0 -2.1944012905 0.75 0 
-2.1944012905 1 0 -2.1944012905 1.25 0 -2.1944012905 1.5 0 
-2.1944012905 1.75 0 -2.1944012905 2 0 -2.1944012905 2.25 0 
-2.1944012905 2.5 0 -2.1944012905 2.75 0 -2.1944012905 3 0 
-2.1944012905 3.25 0 -2.1944012905 3.5 0 -2.1944012905 3.75 0 
-2.1944012905 4 0 -2.1944012905 4.25 0 -2.1944012905 4.5 0 
-2.1944012905 4.75 0 -2.1944012905 5 0 -2.1944012905 5.25 0 
-2.1944012905 5.5 0 -2.1944012905 5.75 0 -2.1944012905 6 0 
-2.1944012905 6.25 0 -2.1944012905 6.5 0 -2.1944012905 6.75 0 
-2.1944012905 7 0 -2.1944012905 7.25 0 -2.1944012905 7.5 0 
-2.1944012905 7.75 0 -2.1944012905 8 0 -2.1944012905 8.25 0 
-2.1944012905 8.5 0 -2.1944012905 8.75 0 -2.1944012905 9 0 
-2.1944012905 9.25 0 -2.1944012905 9.5 0 -2.1944012905 9.75 0 
-2.1094776961 0.25 0 -2.1094776961 0.5 0 -2.1094776961 0.75 0 
-2.1094776961 1 0 -2.1094776961 1.25 0 -2.1094776961 1.5 0 
-2.1094776961 1.75 0 -2.1094776961 2 0 -2.1094776961 2.25 0 
-2.1094776961 2.5 0 -2.1094776961 2.75 0 -2.1094776961 3 0 
-2.1094776961 3.25 0 -2.1094776961 3.5 0 -2.1094776961 3.75 0 
-2.1094776961 4 0 -2.1094776961 4.25 0 -2.1094776961 4.5 0 
-2.1094776961 4.75 0 -2.1094776961 5 0 -2.1094776961 5.25 0 
-2.1094776961 5.5 0 -2.1094776961 5.75 0 -2.1094776961 6 0 
-2.1094776961 6.25 0 -2.1094776961 6.5 0 -2.1094776961 6.75 0 
-2.1094776961 7 0 -2.1094776961 7.25 0 -2.1094776961 7.5 0 
-2.1094776961 7.75 0 -2.1094776961 8 0 -2.1094776961 8.25 0 
-2.1094776961 8.5 0 -2.1094776961 8.75 0 -2.1094776961 9 0 
-2.1094776961 9.25 0 -2.1094776961 9.5 0 -2.1094776961 9.75 0 
-2.0255611029 0.25 0 -2.0255611029 0.5 0 -2.0255611029 0.75 0 
-2.0255611029 1 0 -2.0255611028 1.25 0 -2.0255611028 1.5 0 
-2.0255611028 1.75 0 -2.0255611028 2 0 -2.0255611028 2.25 0 
-2.0255611028 2.5 0 -2.0255611028 2.75 0 -2.0255611028 3 0 
-2.0255611028 3.25 0 -2.0255611028 3.5 0 -2.0255611028 3.75 0 
-2.0255611028 4 0 -2.0255611028 4.25 0 -2.0255611028 4.5 0 
-2.0255611028 4.75 0 -2.0255611028 5 0 -2.0255611028 5.25 0 
-2.0255611028 5.5 0 -2.0255611028 5.75 0 -2.0255611028 6 0 
-2.0255611028 6.25 0 -2.0255611028 6.5 0 -2.0255611028 6.75 0 
-2.0255611028 7 0 -2.0255611028 7.25 0 -2.0255611028 7.5 0 
-2.0255611028 7.75 0 -2.0255611028 8 0 -2.0255611028 8.25 0 
-2.0255611028 8.5 0 -2.0255611028 8.75 0 -2.0255611028 9 0 
-2.0255611028 9.25 0 -2.0255611028 9.5 0 -2.0255611028 9.75 0 
-1.9426395651 0.25 0 -1.9426395651 0.5 0 -1.9426395651 0.75 0 
-1.9426395651 1 0 -1.9426395651 1.25 0 -1.9426395651 1.5 0 
-1.9426395651 1.75 0 -1.9426395651 2 0 -1.9426395651 2.25 0 
-1.9426395651 2.5 0 -1.9426395651 2.75 0 -1.9426395651 3 0 
-1.9426395651 3.25 0 -1.9426395651 3.5 0 -1.9426395651 3.75 0 
-1.9426395651 4 0 -1.9426395651 4.25 0 -1.9426395651 4.5 0 
-1.9426395651 4.75 0 -1.9426395651 5 0 -1.9426395651 5.25 0 
-1.9426395651 5.5 0 -1.9426395651 5.75 0 -1.9426395651 6 0 
-1.9426395651 6.25 0 -1.9426395651 6.5 0 -1.9426395651 6.75 0 
-1.9426395651 7 0 -1.9426395651 7.25 0 -1.9426395651 7.5 0 
-1.9426395651 7.75 0 -1.9426395651 8 0 -1.9426395651 8.25 0 
-1.9426395651 8.5 0 -1.9426395651 8.75 0 -1.9426395651 9 0 
-1.9426395651 9.25 0 -1.9426395651 9.5 0 -1.9426395651 9.75 0 
-1.8607012872 0.25 0 -1.8607012872 0.5 0 -1.8607012872 0.75 0 
-1.8607012872 1 0 -1.8607012872 1.25 0 -1.8607012872 1.5 0 
-1.8607012872 1.75 0 -1.8607012872 2 0 -1.8607012872 2.25 0 
-1.8607012872 2.5 0 -1.8607012872 2.75 0 -1.8607012872 3 0 
-1.8607012872 3.25 0 -1.8607012872 3.5 0 -1.8607012872 3.75 0 
-1.8607012872 4 0 -1.8607012872 4.25 0 -1.8607012872 4.5 0 
-1.8607012872 4.75 0 -1.8607012872 5 0 -1.8607012872 5.25 0 
-1.8607012872 5.5 0 -1.8607012872 5.75 0 -1.8607012872 6 0 
-1.8607012872 6.25 0 -1.8607012872 6.5 0 -1.8607012872 6.75 0 
-1.8607012872 7 0 -1.8607012872 7.25 0 -1.8607012872 7.5 0 
-1.8607012872 7.75 0 -1.8607012872 8 0 -1.8607012872 8.25 0 
-1.8607012872 8.5 0 -1.8607012872 8.75 0 -1.8607012872 9 0 
-1.8607012872 9.25 0 -1.8607012872 9.5 0 -1.8607012872 9.75 0 
-1.7797346108 0.25 0 -1.7797346108 0.5 0 -1.7797346108 0.75 0 
-1.7797346108 1 0 -1.7797346108 1.25 0 -1.7797346108 1.5 0 
-1.7797346108 1.75 0 -1.7797346108 2 0 -1.7797346108 2.25 0 
-1.7797346108 2.5 0 -1.7797346108 2.75 0 -1.7797346108 3 0 
-1.7797346108 3.25 0 -1.7797346108 3.5 0 -1.7797346108 3.75 0 
-1.7797346108 4 0 -1.7797346108 4.25 0 -1.7797346108 4.5 0 
-1.7797346108 4.75 0 -1.7797346108 5 0 -1.7797346108 5.25 0 
-1.7797346108 5.5 0 -1.7797346108 5.75 0 -1.7797346108 6 0 
-1.7797346108 6.25 0 -1.7797346108 6.5 0 -1.7797346108 6.75 0 
-1.7797346108 7 0 -1.7797346108 7.25 0 -1.7797346108 7.5 0 
-1.7797346108 7.75 0 -1.7797346108 8 0 -1.7797346108 8.25 0 
-1.7797346108 8.5 0 -1.7797346108 8.75 0 -1.7797346108 9 0 
-1.7797346108 9.25 0 -1.7797346108 9.5 0 -1.7797346108 9.75 0 
-1.6997280122 0.25 0 -1.6997280122 0.5 0 -1.6997280122 0.75 0 
-1.6997280122 1 0 -1.6997280122 1.25 0 -1.6997280122 1.5 0 
-1.6997280122 1.75 0 -1.6997280122 2 0 -1.6997280122 2.25 0 
-1.6997280122 2.5 0 -1.6997280122 2.75 0 -1.6997280122 3 0 
-1.6997280122 3.25 0 -1.6997280122 3.5 0 -1.6997280122 3.75 0 
-1.6997280122 4 0 -1.6997280122 4.25 0 -1.6997280122 4.5 0 
-1.6997280122 4.75 0 -1.6997280122 5 0 -1.6997280122 5.25 0 
-1.6997280122 5.5 0 -1.6997280122 5.75 0 -1.6997280122 6 0 
-1.6997280122 6.25 0 -1.6997280122 6.5 0 -1.6997280122 6.75 0 
-1.6997280122 7 0 -1.6997280122 7.25 0 -1.6997280122 7.5 0 
-1.6997280122 7.75 0 -1.6997280122 8 0 -1.6997280122 8.25 0 
-1.6997280122 8.5 0 -1.6997280122 8.75 0 -1.6997280122 9 0 
-1.6997280122 9.25 0 -1.6997280122 9.5 0 -1.6997280122 9.75 0 
-1.6206701073 0.25 0 -1.6206701073 0.5 0 -1.6206701073 0.75 0 
-1.6206701073 1 0 -1.6206701073 1.25 0 -1.6206701073 1.5 0 
-1.6206701073 1.75 0 -1.6206701073 2 0 -1.6206701073 2.25 0 
-1.6206701073 2.5 0 -1.6206701073 2.75 0 -1.6206701073 3 0 
-1.6206701073 3.25 0 -1.6206701073 3.5 0 -1.6206701073 3.75 0 
-1.6206701073 4 0 -1.6206701073 4.25 0 -1.6206701073 4.5 0 
-1.6206701073 4.75 0 -1.6206701073 5 0 -1.6206701073 5.25 0 
-1.6206701073 5.5 0 -1.6206701073 5.75 0 -1.6206701073 6 0 
-1.6206701073 6.25 0 -1.6206701073 6.5 0 -1.6206701073 6.75 0 
-1.6206701073 7 0 -1.6206701073 7.25 0 -1.6206701073 7.5 0 
-1.6206701073 7.75 0 -1.6206701073 8 0 -1.6206701073 8.25 0 
-1.6206701073 8.5 0 -1.6206701073 8.75 0 -1.6206701073 9 0 
-1.6206701073 9.25 0 -1.6206701073 9.5 0 -1.6206701073 9.75 0 
-1.5425496489 0.25 0 -1.5425496489 0.5 0 -1.5425496489 0.75 0 
-1.5425496489 1 0 -1.5425496489 1.25 0 -1.5425496489 1.5 0 
-1.5425496489 1.75 0 -1.5425496489 2 0 -1.5425496489 2.25 0 
-1.5425496489 2.5 0 -1.5425496489 2.75 0 -1.5425496489 3 0 
-1.5425496489 3.25 0 -1.5425496489 3.5 0 -1.5425496489 3.75 0 
-1.5425496489 4 0 -1.5425496489 4.25 0 -1.5425496489 4.5 0 
-1.5425496489 4.75 0 -1.5425496489 5 0 -1.5425496489 5.25 0 
-1.5425496489 5.5 0 -1.5425496489 5.75 0 -1.5425496489 6 0 
-1.5425496489 6.25 0 -1.5425496489 6.5 0 -1.5425496489 6.75 0 
-1.5425496489 7 0 -1.5425496489 7.25 0 -1.5425496489 7.5 0 
-1.5425496489 7.75 0 -1.5425496489 8 0 -1.5425496489 8.25 0 
-1.5425496489 8.5 0 -1.5425496489 8.75 0 -1.5425496489 9 0 
-1.5425496489 9.25 0 -1.5425496489 9.5 0 -1.5425496489 9.75 0 
-1.4653555233 0.25 0 -1.4653555232 0.5 0 -1.4653555232 0.75 0 
-1.4653555232 1 0 -1.4653555232 1.25 0 -1.4653555232 1.5 0 
-1.4653555232 1.75 0 -1.4653555232 2 0 -1.4653555232 2.25 0 
-1.4653555232 2.5 0 -1.4653555232 2.75 0 -1.4653555232 3 0 
-1.4653555232 3.25 0 -1.4653555232 3.5 0 -1.4653555232 3.75 0 
-1.4653555232 4 0 -1.4653555232 4.25 0 -1.4653555232 4.5 0 
-1.4653555232 4.75 0 -1.4653555232 5 0 -1.4653555232 5.25 0 
-1.4653555232 5.5 0 -1.4653555232 5.75 0 -1.4653555232 6 0 
-1.4653555232 6.25 0 -1.4653555232 6.5 0 -1.4653555232 6.75 0 
-1.4653555232 7 0 -1.4653555232 7.25 0 -1.4653555232 7.5 0 
-1.4653555232 7.75 0 -1.4653555232 8 0 -1.4653555232 8.25 0 
-1.4653555232 8.5 0 -1.4653555232 8.75 0 -1.4653555232 9 0 
-1.4653555232 9.25 0 -1.4653555232 9.5 0 -1.4653555232 9.75 0 
-1.3890767423 0.25 0 -1.3890767423 0.5 0 -1.3890767423 0.75 0 
-1.3890767423 1 0 -1.3890767423 1.25 0 -1.3890767423 1.5 0 
-1.3890767423 1.75 0 -1.3890767423 2 0 -1.3890767423 2.25 0 
-1.3890767423 2.5 0 -1.3890767423 2.75 0 -1.3890767423 3 0 
-1.3890767423 3.25 0 -1.3890767423 3.5 0 -1.3890767423 3.75 0 
-1.3890767423 4 0 -1.3890767423 4.25 0 -1.3890767423 4.5 0 
-1.3890767423 4.75 0 -1.3890767423 5 0 -1.3890767423 5.25 0 
-1.3890767423 5.5 0 -1.3890767423 5.75 0 -1.3890767423 6 0 
-1.3890767423 6.25 0 -1.3890767423 6.5 0 -1.3890767423 6.75 0 
-1.3890767423 7 0 -1.3890767423 7.25 0 -1.3890767423 7.5 0 
-1.3890767423 7.75 0 -1.3890767423 8 0 -1.3890767423 8.25 0 
-1.3890767423 8.5 0 -1.3890767423 8.75 0 -1.3890767423 9 0 
-1.3890767423 9.25 0 -1.3890767423 9.5 0 -1.3890767423 9.75 0 
-1.3137024497 0.25 0 -1.3137024497 0.5 0 -1.3137024497 0.75 0 
-1.3137024497 1 0 -1.3137024497 1.25 0 -1.3137024497 1.5 0 
-1.3137024497 1.75 0 -1.3137024497 2 0 -1.3137024497 2.25 0 
-1.3137024497 2.5 0 -1.3137024497 2.75 0 -1.3137024497 3 0 
-1.3137024497 3.25 0 -1.3137024497 3.5 0 -1.3137024497 3.75 0 
-1.3137024497 4 0 -1.3137024497 4.25 0 -1.3137024497 4.5 0 
-1.3137024497 4.75 0 -1.3137024497 5 0 -1.3137024497 5.25 0 
-1.3137024497 5.5 0 -1.3137024497 5.75 0 -1.3137024497 6 0 
-1.3137024497 6.25 0 -1.3137024497 6.5 0 -1.3137024497 6.75 0 
-1.3137024497 7 0 -1.3137024497 7.25 0 -1.3137024497 7.5 0 
-1.3137024497 7.75 0 -1.3137024497 8 0 -1.3137024497 8.25 0 
-1.3137024497 8.5 0 -1.3137024497 8.75 0 -1.3137024497 9 0 
-1.3137024497 9.25 0 -1.3137024497 9.5 0 -1.3137024497 9.75 0 
-1.2392219223 0.25 0 -1.2392219223 0.5 0 -1.2392219223 0.75 0 
-1.2392219223 1 0 -1.2392219223 1.25 0 -1.2392219223 1.5 0 
-1.2392219223 1.75 0 -1.2392219223 2 0 -1.2392219223 2.25 0 
-1.2392219223 2.5 0 -1.2392219223 2.75 0 -1.2392219223 3 0 
-1.2392219223 3.25 0 -1.2392219223 3.5 0 -1.2392219223 3.75 0 
-1.2392219223 4 0 -1.2392219223 4.25 0 -1.2392219223 4.5 0 
-1.2392219223 4.75 0 -1.2392219223 5 0 -1.2392219223 5.25 0 
-1.2392219223 5.5 0 -1.2392219223 5.75 0 -1.2392219223 6 0 
-1.2392219223 6.25 0 -1.2392219223 6.5 0 -1.2392219223 6.75 0 
-1.2392219223 7 0 -1.2392219223 7.25 0 -1.2392219223 7.5 0 
-1.2392219223 7.75 0 -1.2392219223 8 0 -1.2392219223 8.25 0 
-1.2392219223 8.5 0 -1.2392219223 8.75 0 -1.2392219223 9 0 
-1.2392219223 9.25 0 -1.2392219223 9.5 0 -1.2392219223 9.75 0 
-1.1656245665 0.25 0 -1.1656245665 0.5 0 -1.1656245665 0.75 0 
-1.1656245665 1 0 -1.1656245665 1.25 0 -1.1656245665 1.5 0 
-1.1656245665 1.75 0 -1.1656245665 2 0 -1.1656245665 2.25 0 
-1.1656245665 2.5 0 -1.1656245665 2.75 0 -1.1656245665 3 0 
-1.1656245665 3.25 0 -1.1656245665 3.5 0 -1.1656245665 3.75 0 
-1.1656245665 4 0 -1.1656245665 4.25 0 -1.1656245665 4.5 0 
-1.1656245665 4.75 0 -1.1656245665 5 0 -1.1656245665 5.25 0 
-1.1656245665 5.5 0 -1.1656245665 5.75 0 -1.1656245665 6 0 
-1.1656245665 6.25 0 -1.1656245665 6.5 0 -1.1656245665 6.75 0 
-1.1656245665 7 0 -1.1656245665 7.25 0 -1.1656245665 7.5 0 
-1.1656245665 7.75 0 -1.1656245665 8 0 -1.1656245665 8.25 0 
-1.1656245665 8.5 0 -1.1656245665 8.75 0 -1.1656245665 9 0 
-1.1656245665 9.25 0 -1.1656245665 9.5 0 -1.1656245665 9.75 0 
-1.0928999071 0.25 0 -1.0928999071 0.5 0 -1.0928999071 0.75 0 
-1.0928999071 1 0 -1.0928999071 1.25 0 -1.0928999071 1.5 0 
-1.0928999071 1.75 0 -1.0928999071 2 0 -1.0928999071 2.25 0 
-1.0928999071 2.5 0 -1.0928999071 2.75 0 -1.0928999071 3 0 
-1.0928999071 3.25 0 -1.0928999071 3.5 0 -1.0928999071 3.75 0 
-1.0928999071 4 0 -1.0928999071 4.25 0 -1.0928999071 4.5 0 
-1.0928999071 4.75 0 -1.0928999071 5 0 -1.0928999071 5.25 0 
-1.0928999071 5.5 0 -1.0928999071 5.75 0 -1.0928999071 6 0 
-1.0928999071 6.25 0 -1.0928999071 6.5 0 -1.0928999071 6.75 0 
-1.0928999071 7 0 -1.0928999071 7.25 0 -1.0928999071 7.5 0 
-1.0928999071 7.75 0 -1.0928999071 8 0 -1.0928999071 8.25 0 
-1.0928999071 8.5 0 -1.0928999071 8.75 0 -1.0928999071 9 0 
-1.0928999071 9.25 0 -1.0928999071 9.5 0 -1.0928999071 9.75 0 
-1.0210375925 0.25 0 -1.0210375925 0.5 0 -1.0210375925 0.75 0 
-1.0210375925 1 0 -1.0210375925 1.25 0 -1.0210375925 1.5 0 
-1.0210375925 1.75 0 -1.0210375925 2 0 -1.0210375925 2.25 0 
-1.0210375925 2.5 0 -1.0210375925 2.75 0 -1.0210375925 3 0 
-1.0210375925 3.25 0 -1.0210375925 3.5 0 -1.0210375925 3.75 0 
-1.0210375925 4 0 -1.0210375925 4.25 0 -1.0210375925 4.5 0 
-1.0210375925 4.75 0 -1.0210375925 5 0 -1.0210375925 5.25 0 
-1.0210375925 5.5 0 -1.0210375925 5.75 0 -1.0210375925 6 0 
-1.0210375925 6.25 0 -1.0210375925 6.5 0 -1.0210375925 6.75 0 
-1.0210375925 7 0 -1.0210375925 7.25 0 -1.0210375925 7.5 0 
-1.0210375925 7.75 0 -1.0210375925 8 0 -1.0210375925 8.25 0 
-1.0210375925 8.5 0 -1.0210375925 8.75 0 -1.0210375925 9 0 
-1.0210375925 9.25 0 -1.0210375925 9.5 0 -1.0210375925 9.75 0 
-0.95002740126 0.25 0 -0.95002740126 0.5 0 -0.95002740126 0.75 0 
-0.95002740126 1 0 -0.95002740126 1.25 0 -0.95002740126 1.5 0 
-0.95002740126 1.75 0 -0.95002740126 2 0 -0.95002740126 2.25 0 
-0.95002740126 2.5 0 -0.95002740126 2.75 0 -0.95002740126 3 0 
-0.95002740126 3.25 0 -0.95002740126 3.5 0 -0.95002740126 3.75 0 
-0.95002740126 4 0 -0.95002740126 4.25 0 -0.95002740126 4.5 0 
-0.95002740126 4.75 0 -0.95002740126 5 0 -0.95002740126 5.25 0 
-0.95002740126 5.5 0 -0.95002740126 5.75 0 -0.95002740126 6 0 
-0.95002740126 6.25 0 -0.95002740126 6.5 0 -0.95002740126 6.75 0 
-0.95002740126 7 0 -0.95002740126 7.25 0 -0.95002740126 7.5 0 
-0.95002740126 7.75 0 -0.95002740126 8 0 -0.95002740126 8.25 0 
-0.95002740126 8.5 0 -0.95002740126 8.75 0 -0.95002740126 9 0 
-0.95002740126 9.25 0 -0.95002740126 9.5 0 -0.95002740126 9.75 0 
-0.87985922981 0.25 0 -0.87985922981 0.5 0 -0.87985922981 0.75 0 
-0.87985922981 1 0 -0.87985922981 1.25 0 -0.87985922981 1.5 0 
-0.87985922981 1.75 0 -0.87985922981 2 0 -0.87985922981 2.25 0 
-0.87985922981 2.5 0 -0.87985922981 2.75 0 -0.87985922981 3 0 
-0.87985922981 3.25 0 -0.87985922981 3.5 0 -0.87985922981 3.75 0 
-0.87985922981 4 0 -0.87985922981 4.25 0 -0.87985922981 4.5 0 
-0.87985922981 4.75 0 -0.87985922981 5 0 -0.87985922981 5.25 0 
-0.87985922981 5.5 0 -0.87985922981 5.75 0 -0.87985922981 6 0 
-0.87985922981 6.25 0 -0.87985922981 6.5 0 -0.87985922981 6.75 0 
-0.87985922981 7 0 -0.87985922981 7.25 0 -0.87985922981 7.5 0 
-0.87985922981 7.75 0 -0.87985922981 8 0 -0.87985922981 8.25 0 
-0.87985922981 8.5 0 -0.87985922981 8.75 0 -0.87985922981 9 0 
-0.87985922981 9.25 0 -0.87985922981 9.5 0 -0.87985922981 9.75 0 
-0.81052308986 0.25 0 -0.81052308986 0.5 0 -0.81052308986 0.75 0 
-0.81052308986 1 0 -0.81052308986 1.25 0 -0.81052308986 1.5 0 
-0.81052308986 1.75 0 -0.81052308986 2 0 -0.81052308986 2.25 0 
-0.81052308986 2.5 0 -0.81052308986 2.75 0 -0.81052308986 3 0 
-0.81052308986 3.25 0 -0.81052308986 3.5 0 -0.81052308986 3.75 0 
-0.81052308986 4 0 -0.81052308986 4.25 0 -0.81052308986 4.5 0 
-0.81052308986 4.75 0 -0.81052308986 5 0 -0.81052308986 5.25 0 
-0.81052308986 5.5 0 -0.81052308986 5.75 0 -0.81052308986 6 0 
-0.81052308986 6.25 0 -0.81052308986 6.5 0 -0.81052308986 6.75 0 
-0.81052308986 7 0 -0.81052308986 7.25 0 -0.81052308986 7.5 0 
-0.81052308986 7.75 0 -0.81052308986 8 0 -0.81052308986 8.25 0 
-0.81052308986 8.5 0 -0.81052308986 8.75 0 -0.81052308986 9 0 
-0.81052308986 9.25 0 -0.81052308986 9.5 0 -0.81052308986 9.75 0 
-0.74200911888 0.25 0 -0.74200911888 0.5 0 -0.74200911888 0.75 0 
-0.74200911888 1 0 -0.74200911888 1.25 0 -0.74200911888 1.5 0 
-0.74200911888 1.75 0 -0.74200911888 2 0 -0.74200911888 2.25 0 
-0.74200911888 2.5 0 -0.74200911888 2.75 0 -0.74200911888 3 0 
-0.74200911888 3.25 0 -0.74200911888 3.5 0 -0.74200911888 3.75 0 
-0.74200911888 4 0 -0.74200911888 4.25 0 -0.74200911888 4.5 0 
-0.74200911888 4.75 0 -0.74200911888 5 0 -0.74200911888 5.25 0 
-0.74200911888 5.5 0 -0.74200911888 5.75 0 -0.74200911888 6 0 
-0.74200911888 6.25 0 -0.74200911888 6.5 0 -0.74200911888 6.75 0 
-0.74200911888 7 0 -0.74200911888 7.25 0 -0.74200911888 7.5 0 
-0.74200911888 7.75 0 -0.74200911888 8 0 -0.74200911888 8.25 0 
-0.74200911888 8.5 0 -0.74200911888 8.75 0 -0.74200911888 9 0 
-0.74200911888 9.25 0 -0.74200911888 9.5 0 -0.74200911888 9.75 0 
-0.67430756817 0.25 0 -0.67430756817 0.5 0 -0.67430756817 0.75 0 
-0.67430756817 1 0 -0.67430756817 1.25 0 -0.67430756817 1.5 0 
-0.67430756817 1.75 0 -0.67430756817 2 0 -0.67430756817 2.25 0 
-0.67430756817 2.5 0 -0.67430756817 2.75 0 -0.67430756817 3 0 
-0.67430756817 3.25 0 -0.67430756817 3.5 0 -0.67430756817 3.75 0 
-0.67430756817 4 0 -0.67430756817 4.25 0 -0.67430756817 4.5 0 
-0.67430756817 4.75 0 -0.67430756817 5 0 -0.67430756817 5.25 0 
-0.67430756817 5.5 0 -0.67430756817 5.75 0 -0.67430756817 6 0 
-0.67430756817 6.25 0 -0.67430756817 6.5 0 -0.67430756817 6.75 0 
-0.67430756817 7 0 -0.67430756817 7.25 0 -0.67430756817 7.5 0 
-0.67430756817 7.75 0 -0.67430756817 8 0 -0.67430756817 8.25 0 
-0.67430756817 8.5 0 -0.67430756817 8.75 0 -0.67430756817 9 0 
-0.67430756817 9.25 0 -0.67430756817 9.5 0 -0.67430756817 9.75 0 
-0.60740880042 0.25 0 -0.60740880042 0.5 0 -0.60740880042 0.75 0 
-0.60740880042 1 0 -0.60740880042 1.25 0 -0.60740880042 1.5 0 
-0.60740880042 1.75 0 -0.60740880042 2 0 -0.60740880042 2.25 0 
-0.60740880042 2.5 0 -0.60740880042 2.75 0 -0.60740880042 3 0 
-0.60740880042 3.25 0 -0.60740880042 3.5 0 -0.60740880042 3.75 0 
-0.60740880042 4 0 -0.60740880042 4.25 0 -0.60740880042 4.5 0 
-0.60740880042 4.75 0 -0.60740880041 5 0 -0.60740880041 5.25 0 
-0.60740880041 5.5 0 -0.60740880041 5.75 0 -0.60740880041 6 0 
-0.60740880041 6.25 0 -0.60740880041 6.5 0 -0.60740880041 6.75 0 
-0.60740880041 7 0 -0.60740880041 7.25 0 -0.60740880041 7.5 0 
-0.60740880041 7.75 0 -0.60740880041 8 0 -0.60740880041 8.25 0 
-0.60740880041 8.5 0 -0.60740880041 8.75 0 -0.60740880041 9 0 
-0.60740880041 9.25 0 -0.60740880041 9.5 0 -0.60740880041 9.75 0 
-0.54130330004 0.25 0 -0.54130330004 0.5 0 -0.54130330004 0.75 0 
-0.54130330004 1 0 -0.54130330004 1.25 0 -0.54130330004 1.5 0 
-0.54130330004 1.75 0 -0.54130330004 2 0 -0.54130330004 2.25 0 
-0.54130330004 2.5 0 -0.54130330004 2.75 0 -0.54130330004 3 0 
-0.54130330004 3.25 0 -0.54130330004 3.5 0 -0.54130330004 3.75 0 
-0.54130330004 4 0 -0.54130330004 4.25 0 -0.54130330004 4.5 0 
-0.54130330004 4.75 0 -0.54130330004 5 0 -0.54130330004 5.25 0 
-0.54130330004 5.5 0 -0.54130330004 5.75 0 -0.54130330004 6 0 
-0.54130330004 6.25 0 -0.54130330004 6.5 0 -0.54130330004 6.75 0 
-0.54130330004 7 0 -0.54130330004 7.25 0 -0.54130330004 7.5 0 
-0.54130330004 7.75 0 -0.54130330004 8 0 -0.54130330004 8.25 0 
-0.54130330004 8.5 0 -0.54130330004 8.75 0 -0.54130330004 9 0 
-0.54130330004 9.25 0 -0.54130330004 9.5 0 -0.54130330004 9.75 0 
-0.47598166168 0.25 0 -0.47598166168 0.5 0 -0.47598166168 0.75 0 
-0.47598166168 1 0 -0.47598166168 1.25 0 -0.47598166168 1.5 0 
-0.47598166168 1.75 0 -0.47598166168 2 0 -0.47598166168 2.25 0 
-0.47598166168 2.5 0 -0.47598166168 2.75 0 -0.47598166168 3 0 
-0.47598166168 3.25 0 -0.47598166168 3.5 0 -0.47598166168 3.75 0 
-0.47598166168 4 0 -0.47598166168 4.25 0 -0.47598166168 4.5 0 
-0.47598166168 4.75 0 -0.47598166168 5 0 -0.47598166168 5.25 0 
-0.47598166168 5.5 0 -0.47598166168 5.75 0 -0.47598166168 6 0 
-0.47598166168 6.25 0 -0.47598166167 6.5 0 -0.47598166167 6.75 0 
-0.47598166167 7 0 -0.47598166167 7.25 0 -0.47598166167 7.5 0 
-0.47598166167 7.75 0 -0.47598166167 8 0 -0.47598166167 8.25 0 
-0.47598166167 8.5 0 -0.47598166167 8.75 0 -0.47598166167 9 0 
-0.47598166167 9.25 0 -0.47598166167 9.5 0 -0.47598166167 9.75 0 
-0.41143458748 0.25 0 -0.41143458748 0.5 0 -0.41143458748 0.75 0 
-0.41143458748 1 0 -0.41143458748 1.25 0 -0.41143458748 1.5 0 
-0.41143458748 1.75 0 -0.41143458748 2 0 -0.41143458748 2.25 0 
-0.41143458748 2.5 0 -0.41143458748 2.75 0 -0.41143458748 3 0 
-0.41143458748 3.25 0 -0.41143458748 3.5 0 -0.41143458748 3.75 0 
-0.41143458748 4 0 -0.41143458748 4.25 0 -0.41143458748 4.5 0 
-0.41143458748 4.75 0 -0.41143458748 5 0 -0.41143458748 5.25 0 
-0.41143458748 5.5 0 -0.41143458748 5.75 0 -0.41143458748 6 0 
-0.41143458748 6.25 0 -0.41143458748 6.5 0 -0.41143458748 6.75 0 
-0.41143458748 7 0 -0.41143458748 7.25 0 -0.41143458748 7.5 0 
-0.41143458748 7.75 0 -0.41143458748 8 0 -0.41143458748 8.25 0 
-0.41143458748 8.5 0 -0.41143458748 8.75 0 -0.41143458748 9 0 
-0.41143458748 9.25 0 -0.41143458748 9.5 0 -0.41143458748 9.75 0 
-0.34765289347 0.25 0 -0.34765289347 0.5 0 -0.34765289347 0.75 0 
-0.34765289347 1 0 -0.34765289347 1.25 0 -0.34765289347 1.5 0 
-0.34765289347 1.75 0 -0.34765289347 2 0 -0.34765289347 2.25 0 
-0.34765289347 2.5 0 -0.34765289347 2.75 0 -0.34765289347 3 0 
-0.34765289347 3.25 0 -0.34765289347 3.5 0 -0.34765289347 3.75 0 
-0.34765289347 4 0 -0.34765289347 4.25 0 -0.34765289347 4.5 0 
-0.34765289347 4.75 0 -0.34765289347 5 0 -0.34765289347 5.25 0 
-0.34765289347 5.5 0 -0.34765289347 5.75 0 -0.34765289347 6 0 
-0.34765289347 6.25 0 -0.34765289347 6.5 0 -0.34765289347 6.75 0 
-0.34765289347 7 0 -0.34765289347 7.25 0 -0.34765289347 7.5 0 
-0.34765289347 7.75 0 -0.34765289347 8 0 -0.34765289347 8.25 0 
-0.34765289347 8.5 0 -0.34765289347 8.75 0 -0.34765289347 9 0 
-0.34765289347 9.25 0 -0.34765289347 9.5 0 -0.34765289346 9.75 0 
-0.28462750229 0.25 0 -0.28462750229 0.5 0 -0.28462750229 0.75 0 
-0.28462750229 1 0 -0.28462750229 1.25 0 -0.28462750229 1.5 0 
-0.28462750229 1.75 0 -0.28462750229 2 0 -0.28462750229 2.25 0 
-0.28462750229 2.5 0 -0.28462750229 2.75 0 -0.28462750229 3 0 
-0.28462750229 3.25 0 -0.28462750229 3.5 0 -0.28462750229 3.75 0 
-0.28462750229 4 0 -0.28462750229 4.25 0 -0.28462750229 4.5 0 
-0.28462750229 4.75 0 -0.28462750229 5 0 -0.28462750229 5.25 0 
-0.28462750229 5.5 0 -0.28462750229 5.75 0 -0.28462750229 6 0 
-0.28462750229 6.25 0 -0.28462750229 6.5 0 -0.28462750229 6.75 0 
-0.28462750229 7 0 -0.28462750229 7.25 0 -0.28462750229 7.5 0 
-0.28462750229 7.75 0 -0.28462750229 8 0 -0.28462750229 8.25 0 
-0.28462750229 8.5 0 -0.28462750229 8.75 0 -0.28462750229 9 0 
-0.28462750229 9.25 0 -0.28462750229 9.5 0 -0.28462750229 9.75 0 
-0.22234944532 0.25 0 -0.22234944532 0.5 0 -0.22234944532 0.75 0 
-0.22234944532 1 0 -0.22234944532 1.25 0 -0.22234944532 1.5 0 
-0.22234944532 1.75 0 -0.22234944532 2 0 -0.22234944532 2.25 0 
-0.22234944532 2.5 0 -0.22234944532 2.75 0 -0.22234944532 3 0 
-0.22234944532 3.25 0 -0.22234944532 3.5 0 -0.22234944532 3.75 0 
-0.22234944532 4 0 -0.22234944532 4.25 0 -0.22234944532 4.5 0 
-0.22234944532 4.75 0 -0.22234944532 5 0 -0.22234944532 5.25 0 
-0.22234944532 5.5 0 -0.22234944532 5.75 0 -0.22234944532 6 0 
-0.22234944532 6.25 0 -0.22234944532 6.5 0 -0.22234944532 6.75 0 
-0.22234944532 7 0 -0.22234944532 7.25 0 -0.22234944532 7.5 0 
-0.22234944532 7.75 0 -0.22234944532 8 0 -0.22234944532 8.25 0 
-0.22234944532 8.5 0 -0.22234944532 8.75 0 -0.22234944532 9 0 
-0.22234944532 9.25 0 -0.22234944532 9.5 0 -0.22234944532 9.75 0 
-0.16080986428 0.25 0 -0.16080986428 0.5 0 -0.16080986428 0.75 0 
-0.16080986428 1 0 -0.16080986428 1.25 0 -0.16080986428 1.5 0 
-0.16080986428 1.75 0 -0.16080986428 2 0 -0.16080986428 2.25 0 
-0.16080986428 2.5 0 -0.16080986428 2.75 0 -0.16080986428 3 0 
-0.16080986428 3.25 0 -0.16080986428 3.5 0 -0.16080986428 3.75 0 
-0.16080986428 4 0 -0.16080986428 4.25 0 -0.16080986428 4.5 0 
-0.16080986428 4.75 0 -0.16080986428 5 0 -0.16080986428 5.25 0 
-0.16080986428 5.5 0 -0.16080986428 5.75 0 -0.16080986428 6 0 
-0.16080986428 6.25 0 -0.16080986428 6.5 0 -0.16080986428 6.75 0 
-0.16080986428 7 0 -0.16080986428 7.25 0 -0.16080986428 7.5 0 
-0.16080986428 7.75 0 -0.16080986428 8 0 -0.16080986428 8.25 0 
-0.16080986428 8.5 0 -0.16080986428 8.75 0 -0.16080986428 9 0 
-0.16080986428 9.25 0 -0.16080986428 9.5 0 -0.16080986428 9.75 0 
-0.075 0.25 0 -0.075 0.5 0 -0.075 0.75 0 
-0.075 1 0 -0.075 1.25 0 -0.075 1.5 0 
-0.075 1.75 0 -0.075 2 0 -0.075 2.25 0 
-0.075 2.5 0 -0.075 2.75 0 -0.075 3 0 
-0.075 3.25 0 -0.075 3.5 0 -0.075 3.75 0 
-0.075 4 0 -0.075 4.25 0 -0.075 4.5 0 
-0.075 4.75 0 -0.075 5 0 -0.075 5.25 0 
-0.075 5.5 0 -0.075 5.75 0 -0.075 6 0 
-0.075 6.25 0 -0.075 6.5 0 -0.075 6.75 0 
-0.075 7 0 -0.075 7.25 0 -0.075 7.5 0 
-0.075 7.75 0 -0.075 8 0 -0.075 8.25 0 
-0.075 8.5 0 -0.075 8.75 0 -0.075 9 0 
-0.075 9.25 0 -0.075 9.5 0 -0.075 9.75 0 
-0.05 0.25 0 -0.05 0.5 0 -0.05 0.75 0 
-0.05 1 0 -0.05 1.25 0 -0.05 1.5 0 
-0.05 1.75 0 -0.05 2 0 -0.05 2.25 0 
-0.05 2.5 0 -0.05 2.75 0 -0.05 3 0 
-0.05 3.25 0 -0.05 3.5 0 -0.05 3.75 0 
-0.05 4 0 -0.05 4.25 0 -0.05 4.5 0 
-0.05 4.75 0 -0.05 5 0 -0.05 5.25 0 
-0.05 5.5 0 -0.05 5.75 0 -0.05 6 0 
-0.05 6.25 0 -0.05 6.5 0 -0.05 6.75 0 
-0.05 7 0 -0.05 7.25 0 -0.05 7.5 0 
-0.05 7.75 0 -0.05 8 0 -0.05 8.25 0 
-0.05 8.5 0 -0.05 8.75 0 -0.05 9 0 
-0.05 9.25 0 -0.05 9.5 0 -0.05 9.75 0 
-0.025 0.25 0 -0.025 0.5 0 -0.025 0.75 0 
-0.025 1 0 -0.025 1.25 0 -0.025 1.5 0 
-0.025 1.75 0 -0.025 2 0 -0.025 2.25 0 
-0.025 2.5 0 -0.025 2.75 0 -0.025 3 0 
-0.025 3.25 0 -0.025 3.5 0 -0.025 3.75 0 
-0.025 4 0 -0.025 4.25 0 -0.025 4.5 0 
-0.025 4.75 0 -0.025 5 0 -0.025 5.25 0 
-0.025 5.5 0 -0.025 5.75 0 -0.025 6 0 
-0.025 6.25 0 -0.025 6.5 0 -0.025 6.75 0 
-0.025 7 0 -0.025 7.25 0 -0.025 7.5 0 
-0.025 7.75 0 -0.025 8 0 -0.025 8.25 0 
-0.025 8.5 0 -0.025 8.75 0 -0.025 9 0 
-0.025 9.25 0 -0.025 9.5 0 -0.025 9.75 0 
-2.524584708e-13 0.25 0 -2.3917118286e-13 0.5 0 -2.2588389492e-13 0.75 0 
-2.1259660699e-13 1 0 -1.9930931905e-13 1.25 0 -1.8602203111e-13 1.5 0 
-1.7273474318e-13 1.75 0 -1.5944745524e-13 2 0 -1.461601673e-13 2.25 0 
-1.3287287937e-13 2.5 0 -1.1958559143e-13 2.75 0 -1.0629830349e-13 3 0 
-9.3011015556e-14 3.25 0 -7.972372762e-14 3.5 0 -6.6436439683e-14 3.75 0 
-5.3149151747e-14 4 0 -3.986186381e-14 4.25 0 -2.6574575873e-14 4.5 0 
-1.3287287937e-14 4.75 0 -2.0204936593e-25 5 0 1.3287287936e-14 5.25 0 
2.6574575873e-14 5.5 0 3.986186381e-14 5.75 0 5.3149151746e-14 6 0 
6.6436439683e-14 6.25 0 7.9723727619e-14 6.5 0 9.3011015556e-14 6.75 0 
1.0629830349e-13 7 0 1.1958559143e-13 7.25 0 1.3287287937e-13 7.5 0 
1.461601673e-13 7.75 0 1.5944745524e-13 8 0 1.7273474318e-13 8.25 0 
1.8602203111e-13 8.5 0 1.9930931905e-13 8.75 0 2.1259660699e-13 9 0 
2.2588389492e-13 9.25 0 2.3917118286e-13 9.5 0 2.524584708e-13 9.75 0 
0.025 0.25 0 0.025 0.5 0 0.025 0.75 0 
0.025 1 0 0.025 1.25 0 0.025 1.5 0 
0.025 1.75 0 0.025 2 0 0.025 2.25 0 
0.025 2.5 0 0.025 2.75 0 0.025 3 0 
0.025 3.25 0 0.025 3.5 0 0.025 3.75 0 
0.025 4 0 0.025 4.25 0 0.025 4.5 0 
0.025 4.75 0 0.025 5 0 0.025 5.25 0 
0.025 5.5 0 0.025 5.75 0 0.025 6 0 
0.025 6.25 0 0.025 6.5 0 0.025 6.75 0 
0.025 7 0 0.025 7.25 0 0.025 7.5 0 
0.025 7.75 0 0.025 8 0 0.025 8.25 0 
0.025 8.5 0 0.025 8.75 0 0.025 9 0 
0.025 9.25 0 0.025 9.5 0 0.025 9.75 0 
0.05 0.25 0 0.05 0.5 0 0.05 0.75 0 
0.05 1 0 0.05 1.25 0 0.05 1.5 0 
0.05 1.75 0 0.05 2 0 0.05 2.25 0 
0.05 2.5 0 0.05 2.75 0 0.05 3 0 
0.05 3.25 0 0.05 3.5 0 0.05 3.75 0 
0.05 4 0 0.05 4.25 0 0.05 4.5 0 
0.05 4.75 0 0.05 5 0 0.05 5.25 0 
0.05 5.5 0 0.05 5.75 0 0.05 6 0 
0.05 6.25 0 0.05 6.5 0 0.05 6.75 0 
0.05 7 0 0.05 7.25 0 0.05 7.5 0 
0.05 7.75 0 0.05 8 0 0.05 8.25 0 
0.05 8.5 0 0.05 8.75 0 0.05 9 0 
0.05 9.25 0 0.05 9.5 0 0.05 9.75 0 
0.075 0.25 0 0.075 0.5 0 0.075 0.75 0 
0.075 1 0 0.075 1.25 0 0.075 1.5 0 
0.075 1.75 0 0.075 2 0 0.075 2.25 0 
0.075 2.5 0 0.075 2.75 0 0.075 3 0 
0.075 3.25 0 0.075 3.5 0 0.075 3.75 0 
0.075 4 0 0.075 4.25 0 0.075 4.5 0 
0.075 4.75 0 0.075 5 0 0.075 5.25 0 
0.075 5.5 0 0.075 5.75 0 0.075 6 0 
0.075 6.25 0 0.075 6.5 0 0.075 6.75 0 
0.075 7 0 0.075 7.25 0 0.075 7.5 0 
0.075 7.75 0 0.075 8 0 0.075 8.25 0 
0.075 8.5 0 0.075 8.75 0 0.075 9 0 
0.075 9.25 0 0.075 9.5 0 0.075 9.75 0 
0.15779696882 0.25 0 0.15779696871 0.5 0 0.15779696859 0.75 0 
0.15779696847 1 0 0.15779696836 1.25 0 0.15779696824 1.5 0 
0.15779696812 1.75 0 0.15779696801 2 0 0.15779696789 2.25 0 
0.15779696777 2.5 0 0.15779696766 2.75 0 0.15779696754 3 0 
0.15779696742 3.25 0 0.15779696731 3.5 0 0.15779696719 3.75 0 
0.15779696707 4 0 0.15779696696 4.25 0 0.15779696684 4.5 0 
0.15779696672 4.75 0 0.15779696661 5 0 0.15779696649 5.25 0 
0.15779696637 5.5 0 0.15779696626 5.75 0 0.15779696614 6 0 
0.15779696602 6.25 0 0.15779696591 6.5 0 0.15779696579 6.75 0 
0.15779696567 7 0 0.15779696556 7.25 0 0.15779696544 7.5 0 
0.15779696532 7.75 0 0.15779696521 8 0 0.15779696509 8.25 0 
0.15779696498 8.5 0 0.15779696486 8.75 0 0.15779696474 9 0 
0.15779696463 9.25 0 0.15779696451 9.5 0 0.15779696439 9.75 0 
0.21703886096 0.25 0 0.21703886084 0.5 0 0.21703886073 0.75 0 
0.21703886061 1 0 0.21703886049 1.25 0 0.21703886037 1.5 0 
0.21703886025 1.75 0 0.21703886013 2 0 0.21703886002 2.25 0 
0.2170388599 2.5 0 0.21703885978 2.75 0 0.21703885966 3 0 
0.21703885954 3.25 0 0.21703885943 3.5 0 0.21703885931 3.75 0 
0.21703885919 4 0 0.21703885907 4.25 0 0.21703885895 4.5 0 
0.21703885883 4.75 0 0.21703885872 5 0 0.2170388586 5.25 0 
0.21703885848 5.5 0 0.21703885836 5.75 0 0.21703885824 6 0 
0.21703885813 6.25 0 0.21703885801 6.5 0 0.21703885789 6.75 0 
0.21703885777 7 0 0.21703885765 7.25 0 0.21703885754 7.5 0 
0.21703885742 7.75 0 0.2170388573 8 0 0.21703885718 8.25 0 
0.21703885706 8.5 0 0.21703885694 8.75 0 0.21703885683 9 0 
0.21703885671 9.25 0 0.21703885659 9.5 0 0.21703885647 9.75 0 
0.27776180105 0.25 0 0.27776180093 0.5 0 0.27776180081 0.75 0 
0.27776180069 1 0 0.27776180057 1.25 0 0.27776180045 1.5 0 
0.27776180033 1.75 0 0.27776180021 2 0 0.27776180009 2.25 0 
0.27776179997 2.5 0 0.27776179985 2.75 0 0.27776179973 3 0 
0.27776179961 3.25 0 0.27776179949 3.5 0 0.27776179937 3.75 0 
0.27776179925 4 0 0.27776179913 4.25 0 0.27776179901 4.5 0 
0.27776179889 4.75 0 0.27776179877 5 0 0.27776179865 5.25 0 
0.27776179853 5.5 0 0.27776179842 5.75 0 0.2777617983 6 0 
0.27776179818 6.25 0 0.27776179806 6.5 0 0.27776179794 6.75 0 
0.27776179782 7 0 0.2777617977 7.25 0 0.27776179758 7.5 0 
0.27776179746 7.75 0 0.27776179734 8 0 0.27776179722 8.25 0 
0.2777617971 8.5 0 0.27776179698 8.75 0 0.27776179686 9 0 
0.27776179674 9.25 0 0.27776179662 9.5 0 0.2777617965 9.75 0 
0.34000281388 0.25 0 0.34000281376 0.5 0 0.34000281364 0.75 0 
0.34000281352 1 0 0.3400028134 1.25 0 0.34000281327 1.5 0 
0.34000281315 1.75 0 0.34000281303 2 0 0.34000281291 2.25 0 
0.34000281279 2.5 0 0.34000281267 2.75 0 0.34000281255 3 0 
0.34000281242 3.25 0 0.3400028123 3.5 0 0.34000281218 3.75 0 
0.34000281206 4 0 0.34000281194 4.25 0 0.34000281182 4.5 0 
0.3400028117 4.75 0 0.34000281157 5 0 0.34000281145 5.25 0 
0.34000281133 5.5 0 0.34000281121 5.75 0 0.34000281109 6 0 
0.34000281097 6.25 0 0.34000281085 6.5 0 0.34000281073 6.75 0 
0.3400028106 7 0 0.34000281048 7.25 0 0.34000281036 7.5 0 
0.34000281024 7.75 0 0.34000281012 8 0 0.34000281 8.25 0 
0.34000280988 8.5 0 0.34000280975 8.75 0 0.34000280963 9 0 
0.34000280951 9.25 0 0.34000280939 9.5 0 0.34000280927 9.75 0 
0.40379985115 0.25 0 0.40379985102 0.5 0 0.4037998509 0.75 0 
0.40379985078 1 0 0.40379985065 1.25 0 0.40379985053 1.5 0 
0.40379985041 1.75 0 0.40379985028 2 0 0.40379985016 2.25 0 
0.40379985004 2.5 0 0.40379984992 2.75 0 0.40379984979 3 0 
0.40379984967 3.25 0 0.40379984955 3.5 0 0.40379984942 3.75 0 
0.4037998493 4 0 0.40379984918 4.25 0 0.40379984905 4.5 0 
0.40379984893 4.75 0 0.40379984881 5 0 0.40379984869 5.25 0 
0.40379984856 5.5 0 0.40379984844 5.75 0 0.40379984832 6 0 
0.40379984819 6.25 0 0.40379984807 6.5 0 0.40379984795 6.75 0 
0.40379984782 7 0 0.4037998477 7.25 0 0.40379984758 7.5 0 
0.40379984746 7.75 0 0.40379984733 8 0 0.40379984721 8.25 0 
0.40379984709 8.5 0 0.40379984696 8.75 0 0.40379984684 9 0 
0.40379984672 9.25 0 0.40379984659 9.5 0 0.40379984647 9.75 0 
0.46919181469 0.25 0 0.46919181456 0.5 0 0.46919181444 0.75 0 
0.46919181431 1 0 0.46919181419 1.25 0 0.46919181406 1.5 0 
0.46919181394 1.75 0 0.46919181381 2 0 0.46919181369 2.25 0 
0.46919181357 2.5 0 0.46919181344 2.75 0 0.46919181332 3 0 
0.46919181319 3.25 0 0.46919181307 3.5 0 0.46919181294 3.75 0 
0.46919181282 4 0 0.46919181269 4.25 0 0.46919181257 4.5 0 
0.46919181244 4.75 0 0.46919181232 5 0 0.46919181219 5.25 0 
0.46919181207 5.5 0 0.46919181195 5.75 0 0.46919181182 6 0 
0.4691918117 6.25 0 0.46919181157 6.5 0 0.46919181145 6.75 0 
0.46919181132 7 0 0.4691918112 7.25 0 0.46919181107 7.5 0 
0.46919181095 7.75 0 0.46919181082 8 0 0.4691918107 8.25 0 
0.46919181058 8.5 0 0.46919181045 8.75 0 0.46919181033 9 0 
0.4691918102 9.25 0 0.46919181008 9.5 0 0.46919180995 9.75 0 
0.53621857645 0.25 0 0.53621857632 0.5 0 0.5362185762 0.75 0 
0.53621857607 1 0 0.53621857594 1.25 0 0.53621857582 1.5 0 
0.53621857569 1.75 0 0.53621857556 2 0 0.53621857544 2.25 0 
0.53621857531 2.5 0 0.53621857519 2.75 0 0.53621857506 3 0 
0.53621857493 3.25 0 0.53621857481 3.5 0 0.53621857468 3.75 0 
0.53621857455 4 0 0.53621857443 4.25 0 0.5362185743 4.5 0 
0.53621857418 4.75 0 0.53621857405 5 0 0.53621857392 5.25 0 
0.5362185738 5.5 0 0.53621857367 5.75 0 0.53621857354 6 0 
0.53621857342 6.25 0 0.53621857329 6.5 0 0.53621857317 6.75 0 
0.53621857304 7 0 0.53621857291 7.25 0 0.53621857279 7.5 0 
0.53621857266 7.75 0 0.53621857254 8 0 0.53621857241 8.25 0 
0.53621857228 8.5 0 0.53621857216 8.75 0 0.53621857203 9 0 
0.5362185719 9.25 0 0.53621857178 9.5 0 0.53621857165 9.75 0 
0.60492100853 0.25 0 0.6049210084 0.5 0 0.60492100827 0.75 0 
0.60492100814 1 0 0.60492100801 1.25 0 0.60492100788 1.5 0 
0.60492100775 1.75 0 0.60492100762 2 0 0.6049210075 2.25 0 
0.60492100737 2.5 0 0.60492100724 2.75 0 0.60492100711 3 0 
0.60492100698 3.25 0 0.60492100685 3.5 0 0.60492100672 3.75 0 
0.60492100659 4 0 0.60492100646 4.25 0 0.60492100633 4.5 0 
0.6049210062 4.75 0 0.60492100607 5 0 0.60492100594 5.25 0 
0.60492100581 5.5 0 0.60492100569 5.75 0 0.60492100556 6 0 
0.60492100543 6.25 0 0.6049210053 6.5 0 0.60492100517 6.75 0 
0.60492100504 7 0 0.60492100491 7.25 0 0.60492100478 7.5 0 
0.60492100465 7.75 0 0.60492100452 8 0 0.60492100439 8.25 0 
0.60492100426 8.5 0 0.60492100413 8.75 0 0.60492100401 9 0 
0.60492100388 9.25 0 0.60492100375 9.5 0 0.60492100362 9.75 0 
0.67534100096 0.25 0 0.67534100083 0.5 0 0.6753410007 0.75 0 
0.67534100057 1 0 0.67534100044 1.25 0 0.67534100031 1.5 0 
0.67534100018 1.75 0 0.67534100005 2 0 0.67534099992 2.25 0 
0.67534099979 2.5 0 0.67534099966 2.75 0 0.67534099953 3 0 
0.6753409994 3.25 0 0.67534099927 3.5 0 0.67534099914 3.75 0 
0.67534099901 4 0 0.67534099888 4.25 0 0.67534099875 4.5 0 
0.67534099863 4.75 0 0.6753409985 5 0 0.67534099837 5.25 0 
0.67534099824 5.5 0 0.67534099811 5.75 0 0.67534099798 6 0 
0.67534099785 6.25 0 0.67534099772 6.5 0 0.67534099759 6.75 0 
0.67534099746 7 0 0.67534099733 7.25 0 0.6753409972 7.5 0 
0.67534099707 7.75 0 0.67534099694 8 0 0.67534099681 8.25 0 
0.67534099668 8.5 0 0.67534099655 8.75 0 0.67534099642 9 0 
0.67534099629 9.25 0 0.67534099617 9.5 0 0.67534099604 9.75 0 
0.74752148974 0.25 0 0.7475214896 0.5 0 0.74752148947 0.75 0 
0.74752148934 1 0 0.74752148921 1.25 0 0.74752148908 1.5 0 
0.74752148895 1.75 0 0.74752148882 2 0 0.74752148869 2.25 0 
0.74752148856 2.5 0 0.74752148842 2.75 0 0.74752148829 3 0 
0.74752148816 3.25 0 0.74752148803 3.5 0 0.7475214879 3.75 0 
0.74752148777 4 0 0.74752148764 4.25 0 0.74752148751 4.5 0 
0.74752148738 4.75 0 0.74752148724 5 0 0.74752148711 5.25 0 
0.74752148698 5.5 0 0.74752148685 5.75 0 0.74752148672 6 0 
0.74752148659 6.25 0 0.74752148646 6.5 0 0.74752148633 6.75 0 
0.7475214862 7 0 0.74752148606 7.25 0 0.74752148593 7.5 0 
0.7475214858 7.75 0 0.74752148567 8 0 0.74752148554 8.25 0 
0.74752148541 8.5 0 0.74752148528 8.75 0 0.74752148515 9 0 
0.74752148502 9.25 0 0.74752148488 9.5 0 0.74752148475 9.75 0 
0.82150649079 0.25 0 0.82150649066 0.5 0 0.82150649053 0.75 0 
0.82150649039 1 0 0.82150649026 1.25 0 0.82150649013 1.5 0 
0.82150649 1.75 0 0.82150648986 2 0 0.82150648973 2.25 0 
0.8215064896 2.5 0 0.82150648946 2.75 0 0.82150648933 3 0 
0.8215064892 3.25 0 0.82150648907 3.5 0 0.82150648893 3.75 0 
0.8215064888 4 0 0.82150648867 4.25 0 0.82150648854 4.5 0 
0.8215064884 4.75 0 0.82150648827 5 0 0.82150648814 5.25 0 
0.821506488 5.5 0 0.82150648787 5.75 0 0.82150648774 6 0 
0.82150648761 6.25 0 0.82150648747 6.5 0 0.82150648734 6.75 0 
0.82150648721 7 0 0.82150648708 7.25 0 0.82150648694 7.5 0 
0.82150648681 7.75 0 0.82150648668 8 0 0.82150648654 8.25 0 
0.82150648641 8.5 0 0.82150648628 8.75 0 0.82150648615 9 0 
0.82150648601 9.25 0 0.82150648588 9.5 0 0.82150648575 9.75 0 
0.89734111693 0.25 0 0.89734111679 0.5 0 0.89734111666 0.75 0 
0.89734111652 1 0 0.89734111639 1.25 0 0.89734111626 1.5 0 
0.89734111612 1.75 0 0.89734111599 2 0 0.89734111585 2.25 0 
0.89734111572 2.5 0 0.89734111558 2.75 0 0.89734111545 3 0 
0.89734111532 3.25 0 0.89734111518 3.5 0 0.89734111505 3.75 0 
0.89734111491 4 0 0.89734111478 4.25 0 0.89734111464 4.5 0 
0.89734111451 4.75 0 0.89734111437 5 0 0.89734111424 5.25 0 
0.89734111411 5.5 0 0.89734111397 5.75 0 0.89734111384 6 0 
0.8973411137 6.25 0 0.89734111357 6.5 0 0.89734111343 6.75 0 
0.8973411133 7 0 0.89734111317 7.25 0 0.89734111303 7.5 0 
0.8973411129 7.75 0 0.89734111276 8 0 0.89734111263 8.25 0 
0.89734111249 8.5 0 0.89734111236 8.75 0 0.89734111222 9 0 
0.89734111209 9.25 0 0.89734111196 9.5 0 0.89734111182 9.75 0 
0.97507160981 0.25 0 0.97507160968 0.5 0 0.97507160954 0.75 0 
0.9750716094 1 0 0.97507160927 1.25 0 0.97507160913 1.5 0 
0.975071609 1.75 0 0.97507160886 2 0 0.97507160872 2.25 0 
0.97507160859 2.5 0 0.97507160845 2.75 0 0.97507160832 3 0 
0.97507160818 3.25 0 0.97507160804 3.5 0 0.97507160791 3.75 0 
0.97507160777 4 0 0.97507160764 4.25 0 0.9750716075 4.5 0 
0.97507160736 4.75 0 0.97507160723 5 0 0.97507160709 5.25 0 
0.97507160696 5.5 0 0.97507160682 5.75 0 0.97507160668 6 0 
0.97507160655 6.25 0 0.97507160641 6.5 0 0.97507160628 6.75 0 
0.97507160614 7 0 0.975071606 7.25 0 0.97507160587 7.5 0 
0.97507160573 7.75 0 0.9750716056 8 0 0.97507160546 8.25 0 
0.97507160532 8.5 0 0.97507160519 8.75 0 0.97507160505 9 0 
0.97507160492 9.25 0 0.97507160478 9.5 0 0.97507160464 9.75 0 
1.0547453642 0.25 0 1.0547453641 0.5 0 1.0547453639 0.75 0 
1.0547453638 1 0 1.0547453637 1.25 0 1.0547453635 1.5 0 
1.0547453634 1.75 0 1.0547453632 2 0 1.0547453631 2.25 0 
1.054745363 2.5 0 1.0547453628 2.75 0 1.0547453627 3 0 
1.0547453626 3.25 0 1.0547453624 3.5 0 1.0547453623 3.75 0 
1.0547453621 4 0 1.054745362 4.25 0 1.0547453619 4.5 0 
1.0547453617 4.75 0 1.0547453616 5 0 1.0547453615 5.25 0 
1.0547453613 5.5 0 1.0547453612 5.75 0 1.054745361 6 0 
1.0547453609 6.25 0 1.0547453608 6.5 0 1.0547453606 6.75 0 
1.0547453605 7 0 1.0547453604 7.25 0 1.0547453602 7.5 0 
1.0547453601 7.75 0 1.0547453599 8 0 1.0547453598 8.25 0 
1.0547453597 8.5 0 1.0547453595 8.75 0 1.0547453594 9 0 
1.0547453593 9.25 0 1.0547453591 9.5 0 1.054745359 9.75 0 
1.1364109626 0.25 0 1.1364109625 0.5 0 1.1364109623 0.75 0 
1.1364109622 1 0 1.136410962 1.25 0 1.1364109619 1.5 0 
1.1364109618 1.75 0 1.1364109616 2 0 1.1364109615 2.25 0 
1.1364109613 2.5 0 1.1364109612 2.75 0 1.1364109611 3 0 
1.1364109609 3.25 0 1.1364109608 3.5 0 1.1364109606 3.75 0 
1.1364109605 4 0 1.1364109604 4.25 0 1.1364109602 4.5 0 
1.1364109601 4.75 0 1.1364109599 5 0 1.1364109598 5.25 0 
1.1364109597 5.5 0 1.1364109595 5.75 0 1.1364109594 6 0 
1.1364109593 6.25 0 1.1364109591 6.5 0 1.136410959 6.75 0 
1.1364109588 7 0 1.1364109587 7.25 0 1.1364109586 7.5 0 
1.1364109584 7.75 0 1.1364109583 8 0 1.1364109581 8.25 0 
1.136410958 8.5 0 1.1364109579 8.75 0 1.1364109577 9 0 
1.1364109576 9.25 0 1.1364109574 9.5 0 1.1364109573 9.75 0 
1.2201182026 0.25 0 1.2201182024 0.5 0 1.2201182023 0.75 0 
1.2201182021 1 0 1.220118202 1.25 0 1.2201182018 1.5 0 
1.2201182017 1.75 0 1.2201182016 2 0 1.2201182014 2.25 0 
1.2201182013 2.5 0 1.2201182011 2.75 0 1.220118201 3 0 
1.2201182009 3.25 0 1.2201182007 3.5 0 1.2201182006 3.75 0 
1.2201182004 4 0 1.2201182003 4.25 0 1.2201182002 4.5 0 
1.2201182 4.75 0 1.2201181999 5 0 1.2201181997 5.25 0 
1.2201181996 5.5 0 1.2201181995 5.75 0 1.2201181993 6 0 
1.2201181992 6.25 0 1.220118199 6.5 0 1.2201181989 6.75 0 
1.2201181988 7 0 1.2201181986 7.25 0 1.2201181985 7.5 0 
1.2201181983 7.75 0 1.2201181982 8 0 1.220118198 8.25 0 
1.2201181979 8.5 0 1.2201181978 8.75 0 1.2201181976 9 0 
1.2201181975 9.25 0 1.2201181973 9.5 0 1.2201181972 9.75 0 
1.305918125 0.25 0 1.3059181248 0.5 0 1.3059181247 0.75 0 
1.3059181246 1 0 1.3059181244 1.25 0 1.3059181243 1.5 0 
1.3059181241 1.75 0 1.305918124 2 0 1.3059181238 2.25 0 
1.3059181237 2.5 0 1.3059181236 2.75 0 1.3059181234 3 0 
1.3059181233 3.25 0 1.3059181231 3.5 0 1.305918123 3.75 0 
1.3059181229 4 0 1.3059181227 4.25 0 1.3059181226 4.5 0 
1.3059181224 4.75 0 1.3059181223 5 0 1.3059181221 5.25 0 
1.305918122 5.5 0 1.3059181219 5.75 0 1.3059181217 6 0 
1.3059181216 6.25 0 1.3059181214 6.5 0 1.3059181213 6.75 0 
1.3059181211 7 0 1.305918121 7.25 0 1.3059181209 7.5 0 
1.3059181207 7.75 0 1.3059181206 8 0 1.3059181204 8.25 0 
1.3059181203 8.5 0 1.3059181201 8.75 0 1.30591812 9 0 
1.3059181199 9.25 0 1.3059181197 9.5 0 1.3059181196 9.75 0 
1.3938630444 0.25 0 1.3938630443 0.5 0 1.3938630441 0.75 0 
1.393863044 1 0 1.3938630438 1.25 0 1.3938630437 1.5 0 
1.3938630435 1.75 0 1.3938630434 2 0 1.3938630433 2.25 0 
1.3938630431 2.5 0 1.393863043 2.75 0 1.3938630428 3 0 
1.3938630427 3.25 0 1.3938630425 3.5 0 1.3938630424 3.75 0 
1.3938630422 4 0 1.3938630421 4.25 0 1.393863042 4.5 0 
1.3938630418 4.75 0 1.3938630417 5 0 1.3938630415 5.25 0 
1.3938630414 5.5 0 1.3938630412 5.75 0 1.3938630411 6 0 
1.393863041 6.25 0 1.3938630408 6.5 0 1.3938630407 6.75 0 
1.3938630405 7 0 1.3938630404 7.25 0 1.3938630402 7.5 0 
1.3938630401 7.75 0 1.3938630399 8 0 1.3938630398 8.25 0 
1.3938630397 8.5 0 1.3938630395 8.75 0 1.3938630394 9 0 
1.3938630392 9.25 0 1.3938630391 9.5 0 1.3938630389 9.75 0 
1.4840065848 0.25 0 1.4840065846 0.5 0 1.4840065845 0.75 0 
1.4840065844 1 0 1.4840065842 1.25 0 1.4840065841 1.5 0 
1.4840065839 1.75 0 1.4840065838 2 0 1.4840065836 2.25 0 
1.4840065835 2.5 0 1.4840065833 2.75 0 1.4840065832 3 0 
1.484006583 3.25 0 1.4840065829 3.5 0 1.4840065827 3.75 0 
1.4840065826 4 0 1.4840065825 4.25 0 1.4840065823 4.5 0 
1.4840065822 4.75 0 1.484006582 5 0 1.4840065819 5.25 0 
1.4840065817 5.5 0 1.4840065816 5.75 0 1.4840065814 6 0 
1.4840065813 6.25 0 1.4840065811 6.5 0 1.484006581 6.75 0 
1.4840065809 7 0 1.4840065807 7.25 0 1.4840065806 7.5 0 
1.4840065804 7.75 0 1.4840065803 8 0 1.4840065801 8.25 0 
1.48400658 8.5 0 1.4840065798 8.75 0 1.4840065797 9 0 
1.4840065795 9.25 0 1.4840065794 9.5 0 1.4840065793 9.75 0 
1.5764037132 0.25 0 1.576403713 0.5 0 1.5764037129 0.75 0 
1.5764037128 1 0 1.5764037126 1.25 0 1.5764037125 1.5 0 
1.5764037123 1.75 0 1.5764037122 2 0 1.576403712 2.25 0 
1.5764037119 2.5 0 1.5764037117 2.75 0 1.5764037116 3 0 
1.5764037114 3.25 0 1.5764037113 3.5 0 1.5764037111 3.75 0 
1.576403711 4 0 1.5764037108 4.25 0 1.5764037107 4.5 0 
1.5764037105 4.75 0 1.5764037104 5 0 1.5764037102 5.25 0 
1.5764037101 5.5 0 1.57640371 5.75 0 1.5764037098 6 0 
1.5764037097 6.25 0 1.5764037095 6.5 0 1.5764037094 6.75 0 
1.5764037092 7 0 1.5764037091 7.25 0 1.5764037089 7.5 0 
1.5764037088 7.75 0 1.5764037086 8 0 1.5764037085 8.25 0 
1.5764037083 8.5 0 1.5764037082 8.75 0 1.576403708 9 0 
1.5764037079 9.25 0 1.5764037077 9.5 0 1.5764037076 9.75 0 
1.6711107697 0.25 0 1.6711107696 0.5 0 1.6711107694 0.75 0 
1.6711107693 1 0 1.6711107691 1.25 0 1.671110769 1.5 0 
1.6711107688 1.75 0 1.6711107687 2 0 1.6711107685 2.25 0 
1.6711107684 2.5 0 1.6711107682 2.75 0 1.6711107681 3 0 
1.6711107679 3.25 0 1.6711107678 3.5 0 1.6711107676 3.75 0 
1.6711107675 4 0 1.6711107673 4.25 0 1.6711107672 4.5 0 
1.671110767 4.75 0 1.6711107669 5 0 1.6711107667 5.25 0 
1.6711107666 5.5 0 1.6711107664 5.75 0 1.6711107663 6 0 
1.6711107661 6.25 0 1.671110766 6.5 0 1.6711107658 6.75 0 
1.6711107657 7 0 1.6711107655 7.25 0 1.6711107654 7.5 0 
1.6711107652 7.75 0 1.6711107651 8 0 1.6711107649 8.25 0 
1.6711107648 8.5 0 1.6711107646 8.75 0 1.6711107645 9 0 
1.6711107644 9.25 0 1.6711107642 9.5 0 1.6711107641 9.75 0 
1.7681855042 0.25 0 1.7681855041 0.5 0 1.7681855039 0.75 0 
1.7681855038 1 0 1.7681855036 1.25 0 1.7681855035 1.5 0 
1.7681855033 1.75 0 1.7681855032 2 0 1.768185503 2.25 0 
1.7681855029 2.5 0 1.7681855027 2.75 0 1.7681855026 3 0 
1.7681855024 3.25 0 1.7681855023 3.5 0 1.7681855021 3.75 0 
1.768185502 4 0 1.7681855018 4.25 0 1.7681855017 4.5 0 
1.7681855015 4.75 0 1.7681855014 5 0 1.7681855012 5.25 0 
1.7681855011 5.5 0 1.7681855009 5.75 0 1.7681855008 6 0 
1.7681855006 6.25 0 1.7681855005 6.5 0 1.7681855003 6.75 0 
1.7681855002 7 0 1.7681855 7.25 0 1.7681854999 7.5 0 
1.7681854997 7.75 0 1.7681854996 8 0 1.7681854994 8.25 0 
1.7681854993 8.5 0 1.7681854991 8.75 0 1.768185499 9 0 
1.7681854988 9.25 0 1.7681854987 9.5 0 1.7681854985 9.75 0 
1.8676871098 0.25 0 1.8676871097 0.5 0 1.8676871095 0.75 0 
1.8676871094 1 0 1.8676871092 1.25 0 1.8676871091 1.5 0 
1.8676871089 1.75 0 1.8676871088 2 0 1.8676871086 2.25 0 
1.8676871085 2.5 0 1.8676871083 2.75 0 1.8676871082 3 0 
1.867687108 3.25 0 1.8676871079 3.5 0 1.8676871077 3.75 0 
1.8676871076 4 0 1.8676871074 4.25 0 1.8676871073 4.5 0 
1.8676871071 4.75 0 1.8676871069 5 0 1.8676871068 5.25 0 
1.8676871066 5.5 0 1.8676871065 5.75 0 1.8676871063 6 0 
1.8676871062 6.25 0 1.867687106 6.5 0 1.8676871059 6.75 0 
1.8676871057 7 0 1.8676871056 7.25 0 1.8676871054 7.5 0 
1.8676871053 7.75 0 1.8676871051 8 0 1.867687105 8.25 0 
1.8676871048 8.5 0 1.8676871047 8.75 0 1.8676871045 9 0 
1.8676871044 9.25 0 1.8676871042 9.5 0 1.8676871041 9.75 0 
1.9696762585 0.25 0 1.9696762583 0.5 0 1.9696762582 0.75 0 
1.969676258 1 0 1.9696762578 1.25 0 1.9696762577 1.5 0 
1.9696762575 1.75 0 1.9696762574 2 0 1.9696762572 2.25 0 
1.9696762571 2.5 0 1.9696762569 2.75 0 1.9696762568 3 0 
1.9696762566 3.25 0 1.9696762565 3.5 0 1.9696762563 3.75 0 
1.9696762562 4 0 1.969676256 4.25 0 1.9696762559 4.5 0 
1.9696762557 4.75 0 1.9696762555 5 0 1.9696762554 5.25 0 
1.9696762552 5.5 0 1.9696762551 5.75 0 1.9696762549 6 0 
1.9696762548 6.25 0 1.9696762546 6.5 0 1.9696762545 6.75 0 
1.9696762543 7 0 1.9696762542 7.25 0 1.969676254 7.5 0 
1.9696762539 7.75 0 1.9696762537 8 0 1.9696762536 8.25 0 
1.9696762534 8.5 0 1.9696762532 8.75 0 1.9696762531 9 0 
1.9696762529 9.25 0 1.9696762528 9.5 0 1.9696762526 9.75 0 
2.0742151332 0.25 0 2.074215133 0.5 0 2.0742151329 0.75 0 
2.0742151327 1 0 2.0742151325 1.25 0 2.0742151324 1.5 0 
2.0742151322 1.75 0 2.0742151321 2 0 2.0742151319 2.25 0 
2.0742151318 2.5 0 2.0742151316 2.75 0 2.0742151315 3 0 
2.0742151313 3.25 0 2.0742151311 3.5 0 2.074215131 3.75 0 
2.0742151308 4 0 2.0742151307 4.25 0 2.0742151305 4.5 0 
2.0742151304 4.75 0 2.0742151302 5 0 2.0742151301 5.25 0 
2.0742151299 5.5 0 2.0742151298 5.75 0 2.0742151296 6 0 
2.0742151294 6.25 0 2.0742151293 6.5 0 2.0742151291 6.75 0 
2.074215129 7 0 2.0742151288 7.25 0 2.0742151287 7.5 0 
2.0742151285 7.75 0 2.0742151284 8 0 2.0742151282 8.25 0 
2.074215128 8.5 0 2.0742151279 8.75 0 2.0742151277 9 0 
2.0742151276 9.25 0 2.0742151274 9.5 0 2.0742151273 9.75 0 
2.1813674764 0.25 0 2.1813674762 0.5 0 2.1813674761 0.75 0 
2.1813674759 1 0 2.1813674757 1.25 0 2.1813674756 1.5 0 
2.1813674754 1.75 0 2.1813674753 2 0 2.1813674751 2.25 0 
2.181367475 2.5 0 2.1813674748 2.75 0 2.1813674747 3 0 
2.1813674745 3.25 0 2.1813674743 3.5 0 2.1813674742 3.75 0 
2.181367474 4 0 2.1813674739 4.25 0 2.1813674737 4.5 0 
2.1813674736 4.75 0 2.1813674734 5 0 2.1813674732 5.25 0 
2.1813674731 5.5 0 2.1813674729 5.75 0 2.1813674728 6 0 
2.1813674726 6.25 0 2.1813674725 6.5 0 2.1813674723 6.75 0 
2.1813674721 7 0 2.181367472 7.25 0 2.1813674718 7.5 0 
2.1813674717 7.75 0 2.1813674715 8 0 2.1813674714 8.25 0 
2.1813674712 8.5 0 2.1813674711 8.75 0 2.1813674709 9 0 
2.1813674707 9.25 0 2.1813674706 9.5 0 2.1813674704 9.75 0 
2.2911986265 0.25 0 2.2911986264 0.5 0 2.2911986262 0.75 0 
2.291198626 1 0 2.2911986259 1.25 0 2.2911986257 1.5 0 
2.2911986256 1.75 0 2.2911986254 2 0 2.2911986252 2.25 0 
2.2911986251 2.5 0 2.2911986249 2.75 0 2.2911986248 3 0 
2.2911986246 3.25 0 2.2911986245 3.5 0 2.2911986243 3.75 0 
2.2911986241 4 0 2.291198624 4.25 0 2.2911986238 4.5 0 
2.2911986237 4.75 0 2.2911986235 5 0 2.2911986234 5.25 0 
2.2911986232 5.5 0 2.291198623 5.75 0 2.2911986229 6 0 
2.2911986227 6.25 0 2.2911986226 6.5 0 2.2911986224 6.75 0 
2.2911986222 7 0 2.2911986221 7.25 0 2.2911986219 7.5 0 
2.2911986218 7.75 0 2.2911986216 8 0 2.2911986215 8.25 0 
2.2911986213 8.5 0 2.2911986211 8.75 0 2.291198621 9 0 
2.2911986208 9.25 0 2.2911986207 9.5 0 2.2911986205 9.75 0 
2.4037755561 0.25 0 2.4037755559 0.5 0 2.4037755558 0.75 0 
2.4037755556 1 0 2.4037755555 1.25 0 2.4037755553 1.5 0 
2.4037755551 1.75 0 2.403775555 2 0 2.4037755548 2.25 0 
2.4037755547 2.5 0 2.4037755545 2.75 0 2.4037755543 3 0 
2.4037755542 3.25 0 2.403775554 3.5 0 2.4037755539 3.75 0 
2.4037755537 4 0 2.4037755536 4.25 0 2.4037755534 4.5 0 
2.4037755532 4.75 0 2.4037755531 5 0 2.4037755529 5.25 0 
2.4037755528 5.5 0 2.4037755526 5.75 0 2.4037755524 6 0 
2.4037755523 6.25 0 2.4037755521 6.5 0 2.403775552 6.75 0 
2.4037755518 7 0 2.4037755516 7.25 0 2.4037755515 7.5 0 
2.4037755513 7.75 0 2.4037755512 8 0 2.403775551 8.25 0 
2.4037755508 8.5 0 2.4037755507 8.75 0 2.4037755505 9 0 
2.4037755504 9.25 0 2.4037755502 9.5 0 2.40377555 9.75 0 
2.5191669123 0.25 0 2.5191669121 0.5 0 2.5191669119 0.75 0 
2.5191669118 1 0 2.5191669116 1.25 0 2.5191669115 1.5 0 
2.5191669113 1.75 0 2.5191669111 2 0 2.519166911 2.25 0 
2.5191669108 2.5 0 2.5191669107 2.75 0 2.5191669105 3 0 
2.5191669103 3.25 0 2.5191669102 3.5 0 2.51916691 3.75 0 
2.5191669098 4 0 2.5191669097 4.25 0 2.5191669095 4.5 0 
2.5191669094 4.75 0 2.5191669092 5 0 2.519166909 5.25 0 
2.5191669089 5.5 0 2.5191669087 5.75 0 2.5191669086 6 0 
2.5191669084 6.25 0 2.5191669082 6.5 0 2.5191669081 6.75 0 
2.5191669079 7 0 2.5191669078 7.25 0 2.5191669076 7.5 0 
2.5191669074 7.75 0 2.5191669073 8 0 2.5191669071 8.25 0 
2.519166907 8.5 0 2.5191669068 8.75 0 2.5191669066 9 0 
2.5191669065 9.25 0 2.5191669063 9.5 0 2.5191669061 9.75 0 
2.6374430542 0.25 0 2.6374430541 0.5 0 2.6374430539 0.75 0 
2.6374430537 1 0 2.6374430536 1.25 0 2.6374430534 1.5 0 
2.6374430532 1.75 0 2.6374430531 2 0 2.6374430529 2.25 0 
2.6374430528 2.5 0 2.6374430526 2.75 0 2.6374430524 3 0 
2.6374430523 3.25 0 2.6374430521 3.5 0 2.637443052 3.75 0 
2.6374430518 4 0 2.6374430516 4.25 0 2.6374430515 4.5 0 
2.6374430513 4.75 0 2.6374430511 5 0 2.637443051 5.25 0 
2.6374430508 5.5 0 2.6374430507 5.75 0 2.6374430505 6 0 
2.6374430503 6.25 0 2.6374430502 6.5 0 2.63744305 6.75 0 
2.6374430498 7 0 2.6374430497 7.25 0 2.6374430495 7.5 0 
2.6374430494 7.75 0 2.6374430492 8 0 2.637443049 8.25 0 
2.6374430489 8.5 0 2.6374430487 8.75 0 2.6374430485 9 0 
2.6374430484 9.25 0 2.6374430482 9.5 0 2.6374430481 9.75 0 
2.7586760977 0.25 0 2.7586760976 0.5 0 2.7586760974 0.75 0 
2.7586760973 1 0 2.7586760971 1.25 0 2.7586760969 1.5 0 
2.7586760968 1.75 0 2.7586760966 2 0 2.7586760964 2.25 0 
2.7586760963 2.5 0 2.7586760961 2.75 0 2.7586760959 3 0 
2.7586760958 3.25 0 2.7586760956 3.5 0 2.7586760955 3.75 0 
2.7586760953 4 0 2.7586760951 4.25 0 2.758676095 4.5 0 
2.7586760948 4.75 0 2.7586760946 5 0 2.7586760945 5.25 0 
2.7586760943 5.5 0 2.7586760941 5.75 0 2.758676094 6 0 
2.7586760938 6.25 0 2.7586760937 6.5 0 2.7586760935 6.75 0 
2.7586760933 7 0 2.7586760932 7.25 0 2.758676093 7.5 0 
2.7586760928 7.75 0 2.7586760927 8 0 2.7586760925 8.25 0 
2.7586760923 8.5 0 2.7586760922 8.75 0 2.758676092 9 0 
2.7586760919 9.25 0 2.7586760917 9.5 0 2.7586760915 9.75 0 
2.8829399662 0.25 0 2.882939966 0.5 0 2.8829399658 0.75 0 
2.8829399657 1 0 2.8829399655 1.25 0 2.8829399653 1.5 0 
2.8829399652 1.75 0 2.882939965 2 0 2.8829399649 2.25 0 
2.8829399647 2.5 0 2.8829399645 2.75 0 2.8829399644 3 0 
2.8829399642 3.25 0 2.882939964 3.5 0 2.8829399639 3.75 0 
2.8829399637 4 0 2.8829399635 4.25 0 2.8829399634 4.5 0 
2.8829399632 4.75 0 2.882939963 5 0 2.8829399629 5.25 0 
2.8829399627 5.5 0 2.8829399625 5.75 0 2.8829399624 6 0 
2.8829399622 6.25 0 2.882939962 6.5 0 2.8829399619 6.75 0 
2.8829399617 7 0 2.8829399616 7.25 0 2.8829399614 7.5 0 
2.8829399612 7.75 0 2.8829399611 8 0 2.8829399609 8.25 0 
2.8829399607 8.5 0 2.8829399606 8.75 0 2.8829399604 9 0 
2.8829399602 9.25 0 2.8829399601 9.5 0 2.8829399599 9.75 0 
3.0103104303 0.25 0 3.0103104301 0.5 0 3.01031043 0.75 0 
3.0103104298 1 0 3.0103104296 1.25 0 3.0103104295 1.5 0 
3.0103104293 1.75 0 3.0103104291 2 0 3.010310429 2.25 0 
3.0103104288 2.5 0 3.0103104286 2.75 0 3.0103104285 3 0 
3.0103104283 3.25 0 3.0103104281 3.5 0 3.010310428 3.75 0 
3.0103104278 4 0 3.0103104276 4.25 0 3.0103104275 4.5 0 
3.0103104273 4.75 0 3.0103104271 5 0 3.010310427 5.25 0 
3.0103104268 5.5 0 3.0103104266 5.75 0 3.0103104265 6 0 
3.0103104263 6.25 0 3.0103104261 6.5 0 3.010310426 6.75 0 
3.0103104258 7 0 3.0103104256 7.25 0 3.0103104255 7.5 0 
3.0103104253 7.75 0 3.0103104251 8 0 3.010310425 8.25 0 
3.0103104248 8.5 0 3.0103104246 8.75 0 3.0103104245 9 0 
3.0103104243 9.25 0 3.0103104242 9.5 0 3.010310424 9.75 0 
3.1408651544 0.25 0 3.1408651543 0.5 0 3.1408651541 0.75 0 
3.1408651539 1 0 3.1408651538 1.25 0 3.1408651536 1.5 0 
3.1408651534 1.75 0 3.1408651533 2 0 3.1408651531 2.25 0 
3.1408651529 2.5 0 3.1408651528 2.75 0 3.1408651526 3 0 
3.1408651524 3.25 0 3.1408651523 3.5 0 3.1408651521 3.75 0 
3.1408651519 4 0 3.1408651518 4.25 0 3.1408651516 4.5 0 
3.1408651514 4.75 0 3.1408651513 5 0 3.1408651511 5.25 0 
3.1408651509 5.5 0 3.1408651508 5.75 0 3.1408651506 6 0 
3.1408651504 6.25 0 3.1408651503 6.5 0 3.1408651501 6.75 0 
3.1408651499 7 0 3.1408651498 7.25 0 3.1408651496 7.5 0 
3.1408651494 7.75 0 3.1408651493 8 0 3.1408651491 8.25 0 
3.1408651489 8.5 0 3.1408651488 8.75 0 3.1408651486 9 0 
3.1408651484 9.25 0 3.1408651482 9.5 0 3.1408651481 9.75 0 
3.2746837501 0.25 0 3.2746837499 0.5 0 3.2746837498 0.75 0 
3.2746837496 1 0 3.2746837494 1.25 0 3.2746837493 1.5 0 
3.2746837491 1.75 0 3.2746837489 2 0 3.2746837487 2.25 0 
3.2746837486 2.5 0 3.2746837484 2.75 0 3.2746837482 3 0 
3.2746837481 3.25 0 3.2746837479 3.5 0 3.2746837477 3.75 0 
3.2746837476 4 0 3.2746837474 4.25 0 3.2746837472 4.5 0 
3.2746837471 4.75 0 3.2746837469 5 0 3.2746837467 5.25 0 
3.2746837466 5.5 0 3.2746837464 5.75 0 3.2746837462 6 0 
3.274683746 6.25 0 3.2746837459 6.5 0 3.2746837457 6.75 0 
3.2746837455 7 0 3.2746837454 7.25 0 3.2746837452 7.5 0 
3.274683745 7.75 0 3.2746837449 8 0 3.2746837447 8.25 0 
3.2746837445 8.5 0 3.2746837444 8.75 0 3.2746837442 9 0 
3.274683744 9.25 0 3.2746837439 9.5 0 3.2746837437 9.75 0 
3.4118478131 0.25 0 3.411847813 0.5 0 3.4118478128 0.75 0 
3.4118478126 1 0 3.4118478124 1.25 0 3.4118478123 1.5 0 
3.4118478121 1.75 0 3.4118478119 2 0 3.4118478118 2.25 0 
3.4118478116 2.5 0 3.4118478114 2.75 0 3.4118478113 3 0 
3.4118478111 3.25 0 3.4118478109 3.5 0 3.4118478108 3.75 0 
3.4118478106 4 0 3.4118478104 4.25 0 3.4118478102 4.5 0 
3.4118478101 4.75 0 3.4118478099 5 0 3.4118478097 5.25 0 
3.4118478096 5.5 0 3.4118478094 5.75 0 3.4118478092 6 0 
3.4118478091 6.25 0 3.4118478089 6.5 0 3.4118478087 6.75 0 
3.4118478085 7 0 3.4118478084 7.25 0 3.4118478082 7.5 0 
3.411847808 7.75 0 3.4118478079 8 0 3.4118478077 8.25 0 
3.4118478075 8.5 0 3.4118478074 8.75 0 3.4118478072 9 0 
3.411847807 9.25 0 3.4118478068 9.5 0 3.4118478067 9.75 0 
3.5524409771 0.25 0 3.5524409769 0.5 0 3.5524409768 0.75 0 
3.5524409766 1 0 3.5524409764 1.25 0 3.5524409763 1.5 0 
3.5524409761 1.75 0 3.5524409759 2 0 3.5524409758 2.25 0 
3.5524409756 2.5 0 3.5524409754 2.75 0 3.5524409752 3 0 
3.5524409751 3.25 0 3.5524409749 3.5 0 3.5524409747 3.75 0 
3.5524409746 4 0 3.5524409744 4.25 0 3.5524409742 4.5 0 
3.552440974 4.75 0 3.5524409739 5 0 3.5524409737 5.25 0 
3.5524409735 5.5 0 3.5524409734 5.75 0 3.5524409732 6 0 
3.552440973 6.25 0 3.5524409728 6.5 0 3.5524409727 6.75 0 
3.5524409725 7 0 3.5524409723 7.25 0 3.5524409722 7.5 0 
3.552440972 7.75 0 3.5524409718 8 0 3.5524409716 8.25 0 
3.5524409715 8.5 0 3.5524409713 8.75 0 3.5524409711 9 0 
3.552440971 9.25 0 3.5524409708 9.5 0 3.5524409706 9.75 0 
3.6965489695 0.25 0 3.6965489693 0.5 0 3.6965489691 0.75 0 
3.6965489689 1 0 3.6965489688 1.25 0 3.6965489686 1.5 0 
3.6965489684 1.75 0 3.6965489682 2 0 3.6965489681 2.25 0 
3.6965489679 2.5 0 3.6965489677 2.75 0 3.6965489676 3 0 
3.6965489674 3.25 0 3.6965489672 3.5 0 3.696548967 3.75 0 
3.6965489669 4 0 3.6965489667 4.25 0 3.6965489665 4.5 0 
3.6965489664 4.75 0 3.6965489662 5 0 3.696548966 5.25 0 
3.6965489658 5.5 0 3.6965489657 5.75 0 3.6965489655 6 0 
3.6965489653 6.25 0 3.6965489652 6.5 0 3.696548965 6.75 0 
3.6965489648 7 0 3.6965489646 7.25 0 3.6965489645 7.5 0 
3.6965489643 7.75 0 3.6965489641 8 0 3.696548964 8.25 0 
3.6965489638 8.5 0 3.6965489636 8.75 0 3.6965489634 9 0 
3.6965489633 9.25 0 3.6965489631 9.5 0 3.6965489629 9.75 0 
3.8442596607 0.25 0 3.8442596605 0.5 0 3.8442596604 0.75 0 
3.8442596602 1 0 3.84425966 1.25 0 3.8442596598 1.5 0 
3.8442596597 1.75 0 3.8442596595 2 0 3.8442596593 2.25 0 
3.8442596592 2.5 0 3.844259659 2.75 0 3.8442596588 3 0 
3.8442596586 3.25 0 3.8442596585 3.5 0 3.8442596583 3.75 0 
3.8442596581 4 0 3.8442596579 4.25 0 3.8442596578 4.5 0 
3.8442596576 4.75 0 3.8442596574 5 0 3.8442596573 5.25 0 
3.8442596571 5.5 0 3.8442596569 5.75 0 3.8442596567 6 0 
3.8442596566 6.25 0 3.8442596564 6.5 0 3.8442596562 6.75 0 
3.844259656 7 0 3.8442596559 7.25 0 3.8442596557 7.5 0 
3.8442596555 7.75 0 3.8442596553 8 0 3.8442596552 8.25 0 
3.844259655 8.5 0 3.8442596548 8.75 0 3.8442596547 9 0 
3.8442596545 9.25 0 3.8442596543 9.5 0 3.8442596541 9.75 0 
3.9956631166 0.25 0 3.9956631164 0.5 0 3.9956631163 0.75 0 
3.9956631161 1 0 3.9956631159 1.25 0 3.9956631157 1.5 0 
3.9956631156 1.75 0 3.9956631154 2 0 3.9956631152 2.25 0 
3.995663115 2.5 0 3.9956631149 2.75 0 3.9956631147 3 0 
3.9956631145 3.25 0 3.9956631143 3.5 0 3.9956631142 3.75 0 
3.995663114 4 0 3.9956631138 4.25 0 3.9956631137 4.5 0 
3.9956631135 4.75 0 3.9956631133 5 0 3.9956631131 5.25 0 
3.995663113 5.5 0 3.9956631128 5.75 0 3.9956631126 6 0 
3.9956631124 6.25 0 3.9956631123 6.5 0 3.9956631121 6.75 0 
3.9956631119 7 0 3.9956631117 7.25 0 3.9956631116 7.5 0 
3.9956631114 7.75 0 3.9956631112 8 0 3.995663111 8.25 0 
3.9956631109 8.5 0 3.9956631107 8.75 0 3.9956631105 9 0 
3.9956631103 9.25 0 3.9956631102 9.5 0 3.99566311 9.75 0 
4.1508516572 0.25 0 4.150851657 0.5 0 4.1508516569 0.75 0 
4.1508516567 1 0 4.1508516565 1.25 0 4.1508516563 1.5 0 
4.1508516562 1.75 0 4.150851656 2 0 4.1508516558 2.25 0 
4.1508516556 2.5 0 4.1508516555 2.75 0 4.1508516553 3 0 
4.1508516551 3.25 0 4.1508516549 3.5 0 4.1508516548 3.75 0 
4.1508516546 4 0 4.1508516544 4.25 0 4.1508516542 4.5 0 
4.1508516541 4.75 0 4.1508516539 5 0 4.1508516537 5.25 0 
4.1508516535 5.5 0 4.1508516534 5.75 0 4.1508516532 6 0 
4.150851653 6.25 0 4.1508516528 6.5 0 4.1508516527 6.75 0 
4.1508516525 7 0 4.1508516523 7.25 0 4.1508516521 7.5 0 
4.150851652 7.75 0 4.1508516518 8 0 4.1508516516 8.25 0 
4.1508516514 8.5 0 4.1508516513 8.75 0 4.1508516511 9 0 
4.1508516509 9.25 0 4.1508516507 9.5 0 4.1508516506 9.75 0 
4.3099199144 0.25 0 4.3099199143 0.5 0 4.3099199141 0.75 0 
4.3099199139 1 0 4.3099199137 1.25 0 4.3099199136 1.5 0 
4.3099199134 1.75 0 4.3099199132 2 0 4.309919913 2.25 0 
4.3099199129 2.5 0 4.3099199127 2.75 0 4.3099199125 3 0 
4.3099199123 3.25 0 4.3099199122 3.5 0 4.309919912 3.75 0 
4.3099199118 4 0 4.3099199116 4.25 0 4.3099199115 4.5 0 
4.3099199113 4.75 0 4.3099199111 5 0 4.3099199109 5.25 0 
4.3099199108 5.5 0 4.3099199106 5.75 0 4.3099199104 6 0 
4.3099199102 6.25 0 4.3099199101 6.5 0 4.3099199099 6.75 0 
4.3099199097 7 0 4.3099199095 7.25 0 4.3099199094 7.5 0 
4.3099199092 7.75 0 4.309919909 8 0 4.3099199088 8.25 0 
4.3099199086 8.5 0 4.3099199085 8.75 0 4.3099199083 9 0 
4.3099199081 9.25 0 4.3099199079 9.5 0 4.3099199078 9.75 0 
4.4729648786 0.25 0 4.4729648785 0.5 0 4.4729648783 0.75 0 
4.4729648781 1 0 4.4729648779 1.25 0 4.4729648778 1.5 0 
4.4729648776 1.75 0 4.4729648774 2 0 4.4729648772 2.25 0 
4.4729648771 2.5 0 4.4729648769 2.75 0 4.4729648767 3 0 
4.4729648765 3.25 0 4.4729648763 3.5 0 4.4729648762 3.75 0 
4.472964876 4 0 4.4729648758 4.25 0 4.4729648756 4.5 0 
4.4729648755 4.75 0 4.4729648753 5 0 4.4729648751 5.25 0 
4.4729648749 5.5 0 4.4729648748 5.75 0 4.4729648746 6 0 
4.4729648744 6.25 0 4.4729648742 6.5 0 4.4729648741 6.75 0 
4.4729648739 7 0 4.4729648737 7.25 0 4.4729648735 7.5 0 
4.4729648734 7.75 0 4.4729648732 8 0 4.472964873 8.25 0 
4.4729648728 8.5 0 4.4729648726 8.75 0 4.4729648725 9 0 
4.4729648723 9.25 0 4.4729648721 9.5 0 4.4729648719 9.75 0 
4.6400859657 0.25 0 4.6400859656 0.5 0 4.6400859654 0.75 0 
4.6400859652 1 0 4.640085965 1.25 0 4.6400859649 1.5 0 
4.6400859647 1.75 0 4.6400859645 2 0 4.6400859643 2.25 0 
4.6400859641 2.5 0 4.640085964 2.75 0 4.6400859638 3 0 
4.6400859636 3.25 0 4.6400859634 3.5 0 4.6400859633 3.75 0 
4.6400859631 4 0 4.6400859629 4.25 0 4.6400859627 4.5 0 
4.6400859626 4.75 0 4.6400859624 5 0 4.6400859622 5.25 0 
4.640085962 5.5 0 4.6400859618 5.75 0 4.6400859617 6 0 
4.6400859615 6.25 0 4.6400859613 6.5 0 4.6400859611 6.75 0 
4.640085961 7 0 4.6400859608 7.25 0 4.6400859606 7.5 0 
4.6400859604 7.75 0 4.6400859602 8 0 4.6400859601 8.25 0 
4.6400859599 8.5 0 4.6400859597 8.75 0 4.6400859595 9 0 
4.6400859594 9.25 0 4.6400859592 9.5 0 4.640085959 9.75 0 
4.8113850792 0.25 0 4.811385079 0.5 0 4.8113850789 0.75 0 
4.8113850787 1 0 4.8113850785 1.25 0 4.8113850783 1.5 0 
4.8113850781 1.75 0 4.811385078 2 0 4.8113850778 2.25 0 
4.8113850776 2.5 0 4.8113850774 2.75 0 4.8113850773 3 0 
4.8113850771 3.25 0 4.8113850769 3.5 0 4.8113850767 3.75 0 
4.8113850765 4 0 4.8113850764 4.25 0 4.8113850762 4.5 0 
4.811385076 4.75 0 4.8113850758 5 0 4.8113850757 5.25 0 
4.8113850755 5.5 0 4.8113850753 5.75 0 4.8113850751 6 0 
4.8113850749 6.25 0 4.8113850748 6.5 0 4.8113850746 6.75 0 
4.8113850744 7 0 4.8113850742 7.25 0 4.8113850741 7.5 0 
4.8113850739 7.75 0 4.8113850737 8 0 4.8113850735 8.25 0 
4.8113850733 8.5 0 4.8113850732 8.75 0 4.811385073 9 0 
4.8113850728 9.25 0 4.8113850726 9.5 0 4.8113850725 9.75 0 
4.9869666696 0.25 0 4.9869666694 0.5 0 4.9869666693 0.75 0 
4.9869666691 1 0 4.9869666689 1.25 0 4.9869666687 1.5 0 
4.9869666685 1.75 0 4.9869666684 2 0 4.9869666682 2.25 0 
4.986966668 2.5 0 4.9869666678 2.75 0 4.9869666677 3 0 
4.9869666675 3.25 0 4.9869666673 3.5 0 4.9869666671 3.75 0 
4.9869666669 4 0 4.9869666668 4.25 0 4.9869666666 4.5 0 
4.9869666664 4.75 0 4.9869666662 5 0 4.986966666 5.25 0 
4.9869666659 5.5 0 4.9869666657 5.75 0 4.9869666655 6 0 
4.9869666653 6.25 0 4.9869666652 6.5 0 4.986966665 6.75 0 
4.9869666648 7 0 4.9869666646 7.25 0 4.9869666644 7.5 0 
4.9869666643 7.75 0 4.9869666641 8 0 4.9869666639 8.25 0 
4.9869666637 8.5 0 4.9869666636 8.75 0 4.9869666634 9 0 
4.9869666632 9.25 0 4.986966663 9.5 0 4.9869666628 9.75 0 
5.1669378025 0.25 0 5.1669378023 0.5 0 5.1669378021 0.75 0 
5.166937802 1 0 5.1669378018 1.25 0 5.1669378016 1.5 0 
5.1669378014 1.75 0 5.1669378012 2 0 5.1669378011 2.25 0 
5.1669378009 2.5 0 5.1669378007 2.75 0 5.1669378005 3 0 
5.1669378004 3.25 0 5.1669378002 3.5 0 5.1669378 3.75 0 
5.1669377998 4 0 5.1669377996 4.25 0 5.1669377995 4.5 0 
5.1669377993 4.75 0 5.1669377991 5 0 5.1669377989 5.25 0 
5.1669377987 5.5 0 5.1669377986 5.75 0 5.1669377984 6 0 
5.1669377982 6.25 0 5.166937798 6.5 0 5.1669377979 6.75 0 
5.1669377977 7 0 5.1669377975 7.25 0 5.1669377973 7.5 0 
5.1669377971 7.75 0 5.166937797 8 0 5.1669377968 8.25 0 
5.1669377966 8.5 0 5.1669377964 8.75 0 5.1669377962 9 0 
5.1669377961 9.25 0 5.1669377959 9.5 0 5.1669377957 9.75 0 
5.3514082152 0.25 0 5.3514082151 0.5 0 5.3514082149 0.75 0 
5.3514082147 1 0 5.3514082145 1.25 0 5.3514082143 1.5 0 
5.3514082142 1.75 0 5.351408214 2 0 5.3514082138 2.25 0 
5.3514082136 2.5 0 5.3514082134 2.75 0 5.3514082133 3 0 
5.3514082131 3.25 0 5.3514082129 3.5 0 5.3514082127 3.75 0 
5.3514082126 4 0 5.3514082124 4.25 0 5.3514082122 4.5 0 
5.351408212 4.75 0 5.3514082118 5 0 5.3514082117 5.25 0 
5.3514082115 5.5 0 5.3514082113 5.75 0 5.3514082111 6 0 
5.3514082109 6.25 0 5.3514082108 6.5 0 5.3514082106 6.75 0 
5.3514082104 7 0 5.3514082102 7.25 0 5.35140821 7.5 0 
5.3514082099 7.75 0 5.3514082097 8 0 5.3514082095 8.25 0 
5.3514082093 8.5 0 5.3514082091 8.75 0 5.351408209 9 0 
5.3514082088 9.25 0 5.3514082086 9.5 0 5.3514082084 9.75 0 
5.5404903864 0.25 0 5.5404903862 0.5 0 5.540490386 0.75 0 
5.5404903858 1 0 5.5404903857 1.25 0 5.5404903855 1.5 0 
5.5404903853 1.75 0 5.5404903851 2 0 5.5404903849 2.25 0 
5.5404903848 2.5 0 5.5404903846 2.75 0 5.5404903844 3 0 
5.5404903842 3.25 0 5.540490384 3.5 0 5.5404903839 3.75 0 
5.5404903837 4 0 5.5404903835 4.25 0 5.5404903833 4.5 0 
5.5404903831 4.75 0 5.540490383 5 0 5.5404903828 5.25 0 
5.5404903826 5.5 0 5.5404903824 5.75 0 5.5404903823 6 0 
5.5404903821 6.25 0 5.5404903819 6.5 0 5.5404903817 6.75 0 
5.5404903815 7 0 5.5404903814 7.25 0 5.5404903812 7.5 0 
5.540490381 7.75 0 5.5404903808 8 0 5.5404903806 8.25 0 
5.5404903805 8.5 0 5.5404903803 8.75 0 5.5404903801 9 0 
5.5404903799 9.25 0 5.5404903797 9.5 0 5.5404903796 9.75 0 
5.734299613 0.25 0 5.7342996128 0.5 0 5.7342996126 0.75 0 
5.7342996125 1 0 5.7342996123 1.25 0 5.7342996121 1.5 0 
5.7342996119 1.75 0 5.7342996117 2 0 5.7342996116 2.25 0 
5.7342996114 2.5 0 5.7342996112 2.75 0 5.734299611 3 0 
5.7342996108 3.25 0 5.7342996107 3.5 0 5.7342996105 3.75 0 
5.7342996103 4 0 5.7342996101 4.25 0 5.7342996099 4.5 0 
5.7342996098 4.75 0 5.7342996096 5 0 5.7342996094 5.25 0 
5.7342996092 5.5 0 5.734299609 5.75 0 5.7342996089 6 0 
5.7342996087 6.25 0 5.7342996085 6.5 0 5.7342996083 6.75 0 
5.7342996081 7 0 5.734299608 7.25 0 5.7342996078 7.5 0 
5.7342996076 7.75 0 5.7342996074 8 0 5.7342996073 8.25 0 
5.7342996071 8.5 0 5.7342996069 8.75 0 5.7342996067 9 0 
5.7342996065 9.25 0 5.7342996064 9.5 0 5.7342996062 9.75 0 
5.9329540735 0.25 0 5.9329540733 0.5 0 5.9329540731 0.75 0 
5.9329540729 1 0 5.9329540728 1.25 0 5.9329540726 1.5 0 
5.9329540724 1.75 0 5.9329540722 2 0 5.932954072 2.25 0 
5.9329540719 2.5 0 5.9329540717 2.75 0 5.9329540715 3 0 
5.9329540713 3.25 0 5.9329540711 3.5 0 5.932954071 3.75 0 
5.9329540708 4 0 5.9329540706 4.25 0 5.9329540704 4.5 0 
5.9329540703 4.75 0 5.9329540701 5 0 5.9329540699 5.25 0 
5.9329540697 5.5 0 5.9329540695 5.75 0 5.9329540694 6 0 
5.9329540692 6.25 0 5.932954069 6.5 0 5.9329540688 6.75 0 
5.9329540686 7 0 5.9329540685 7.25 0 5.9329540683 7.5 0 
5.9329540681 7.75 0 5.9329540679 8 0 5.9329540677 8.25 0 
5.9329540676 8.5 0 5.9329540674 8.75 0 5.9329540672 9 0 
5.932954067 9.25 0 5.9329540668 9.5 0 5.9329540667 9.75 0 
6.1365748931 0.25 0 6.1365748929 0.5 0 6.1365748927 0.75 0 
6.1365748925 1 0 6.1365748923 1.25 0 6.1365748922 1.5 0 
6.136574892 1.75 0 6.1365748918 2 0 6.1365748916 2.25 0 
6.1365748914 2.5 0 6.1365748913 2.75 0 6.1365748911 3 0 
6.1365748909 3.25 0 6.1365748907 3.5 0 6.1365748905 3.75 0 
6.1365748904 4 0 6.1365748902 4.25 0 6.13657489 4.5 0 
6.1365748898 4.75 0 6.1365748896 5 0 6.1365748895 5.25 0 
6.1365748893 5.5 0 6.1365748891 5.75 0 6.1365748889 6 0 
6.1365748887 6.25 0 6.1365748886 6.5 0 6.1365748884 6.75 0 
6.1365748882 7 0 6.136574888 7.25 0 6.1365748878 7.5 0 
6.1365748877 7.75 0 6.1365748875 8 0 6.1365748873 8.25 0 
6.1365748871 8.5 0 6.1365748869 8.75 0 6.1365748868 9 0 
6.1365748866 9.25 0 6.1365748864 9.5 0 6.1365748862 9.75 0 
6.3452862317 0.25 0 6.3452862315 0.5 0 6.3452862313 0.75 0 
6.3452862312 1 0 6.345286231 1.25 0 6.3452862308 1.5 0 
6.3452862306 1.75 0 6.3452862304 2 0 6.3452862303 2.25 0 
6.3452862301 2.5 0 6.3452862299 2.75 0 6.3452862297 3 0 
6.3452862296 3.25 0 6.3452862294 3.5 0 6.3452862292 3.75 0 
6.345286229 4 0 6.3452862288 4.25 0 6.3452862287 4.5 0 
6.3452862285 4.75 0 6.3452862283 5 0 6.3452862281 5.25 0 
6.3452862279 5.5 0 6.3452862278 5.75 0 6.3452862276 6 0 
6.3452862274 6.25 0 6.3452862272 6.5 0 6.345286227 6.75 0 
6.3452862269 7 0 6.3452862267 7.25 0 6.3452862265 7.5 0 
6.3452862263 7.75 0 6.3452862261 8 0 6.345286226 8.25 0 
6.3452862258 8.5 0 6.3452862256 8.75 0 6.3452862254 9 0 
6.3452862252 9.25 0 6.3452862251 9.5 0 6.3452862249 9.75 0 
6.5592153532 0.25 0 6.559215353 0.5 0 6.5592153528 0.75 0 
6.5592153526 1 0 6.5592153524 1.25 0 6.5592153523 1.5 0 
6.5592153521 1.75 0 6.5592153519 2 0 6.5592153517 2.25 0 
6.5592153516 2.5 0 6.5592153514 2.75 0 6.5592153512 3 0 
6.559215351 3.25 0 6.5592153508 3.5 0 6.5592153507 3.75 0 
6.5592153505 4 0 6.5592153503 4.25 0 6.5592153501 4.5 0 
6.5592153499 4.75 0 6.5592153498 5 0 6.5592153496 5.25 0 
6.5592153494 5.5 0 6.5592153492 5.75 0 6.559215349 6 0 
6.5592153489 6.25 0 6.5592153487 6.5 0 6.5592153485 6.75 0 
6.5592153483 7 0 6.5592153482 7.25 0 6.559215348 7.5 0 
6.5592153478 7.75 0 6.5592153476 8 0 6.5592153474 8.25 0 
6.5592153473 8.5 0 6.5592153471 8.75 0 6.5592153469 9 0 
6.5592153467 9.25 0 6.5592153465 9.5 0 6.5592153464 9.75 0 
6.7784927016 0.25 0 6.7784927014 0.5 0 6.7784927012 0.75 0 
6.778492701 1 0 6.7784927009 1.25 0 6.7784927007 1.5 0 
6.7784927005 1.75 0 6.7784927003 2 0 6.7784927001 2.25 0 
6.7784927 2.5 0 6.7784926998 2.75 0 6.7784926996 3 0 
6.7784926994 3.25 0 6.7784926992 3.5 0 6.7784926991 3.75 0 
6.7784926989 4 0 6.7784926987 4.25 0 6.7784926985 4.5 0 
6.7784926984 4.75 0 6.7784926982 5 0 6.778492698 5.25 0 
6.7784926978 5.5 0 6.7784926976 5.75 0 6.7784926975 6 0 
6.7784926973 6.25 0 6.7784926971 6.5 0 6.7784926969 6.75 0 
6.7784926967 7 0 6.7784926966 7.25 0 6.7784926964 7.5 0 
6.7784926962 7.75 0 6.778492696 8 0 6.7784926959 8.25 0 
6.7784926957 8.5 0 6.7784926955 8.75 0 6.7784926953 9 0 
6.7784926951 9.25 0 6.778492695 9.5 0 6.7784926948 9.75 0 
7.0032519872 0.25 0 7.003251987 0.5 0 7.0032519869 0.75 0 
7.0032519867 1 0 7.0032519865 1.25 0 7.0032519863 1.5 0 
7.0032519862 1.75 0 7.003251986 2 0 7.0032519858 2.25 0 
7.0032519856 2.5 0 7.0032519854 2.75 0 7.0032519853 3 0 
7.0032519851 3.25 0 7.0032519849 3.5 0 7.0032519847 3.75 0 
7.0032519845 4 0 7.0032519844 4.25 0 7.0032519842 4.5 0 
7.003251984 4.75 0 7.0032519838 5 0 7.0032519837 5.25 0 
7.0032519835 5.5 0 7.0032519833 5.75 0 7.0032519831 6 0 
7.0032519829 6.25 0 7.0032519828 6.5 0 7.0032519826 6.75 0 
7.0032519824 7 0 7.0032519822 7.25 0 7.0032519821 7.5 0 
7.0032519819 7.75 0 7.0032519817 8 0 7.0032519815 8.25 0 
7.0032519813 8.5 0 7.0032519812 8.75 0 7.003251981 9 0 
7.0032519808 9.25 0 7.0032519806 9.5 0 7.0032519805 9.75 0 
7.2336302577 0.25 0 7.2336302575 0.5 0 7.2336302573 0.75 0 
7.2336302571 1 0 7.233630257 1.25 0 7.2336302568 1.5 0 
7.2336302566 1.75 0 7.2336302564 2 0 7.2336302562 2.25 0 
7.2336302561 2.5 0 7.2336302559 2.75 0 7.2336302557 3 0 
7.2336302555 3.25 0 7.2336302554 3.5 0 7.2336302552 3.75 0 
7.233630255 4 0 7.2336302548 4.25 0 7.2336302546 4.5 0 
7.2336302545 4.75 0 7.2336302543 5 0 7.2336302541 5.25 0 
7.2336302539 5.5 0 7.2336302538 5.75 0 7.2336302536 6 0 
7.2336302534 6.25 0 7.2336302532 6.5 0 7.2336302531 6.75 0 
7.2336302529 7 0 7.2336302527 7.25 0 7.2336302525 7.5 0 
7.2336302523 7.75 0 7.2336302522 8 0 7.233630252 8.25 0 
7.2336302518 8.5 0 7.2336302516 8.75 0 7.2336302515 9 0 
7.2336302513 9.25 0 7.2336302511 9.5 0 7.2336302509 9.75 0 
7.4697679818 0.25 0 7.4697679816 0.5 0 7.4697679814 0.75 0 
7.4697679812 1 0 7.469767981 1.25 0 7.4697679809 1.5 0 
7.4697679807 1.75 0 7.4697679805 2 0 7.4697679803 2.25 0 
7.4697679802 2.5 0 7.46976798 2.75 0 7.4697679798 3 0 
7.4697679796 3.25 0 7.4697679795 3.5 0 7.4697679793 3.75 0 
7.4697679791 4 0 7.4697679789 4.25 0 7.4697679788 4.5 0 
7.4697679786 4.75 0 7.4697679784 5 0 7.4697679782 5.25 0 
7.469767978 5.5 0 7.4697679779 5.75 0 7.4697679777 6 0 
7.4697679775 6.25 0 7.4697679773 6.5 0 7.4697679772 6.75 0 
7.469767977 7 0 7.4697679768 7.25 0 7.4697679766 7.5 0 
7.4697679765 7.75 0 7.4697679763 8 0 7.4697679761 8.25 0 
7.4697679759 8.5 0 7.4697679758 8.75 0 7.4697679756 9 0 
7.4697679754 9.25 0 7.4697679752 9.5 0 7.469767975 9.75 0 
7.7118091474 0.25 0 7.7118091472 0.5 0 7.7118091471 0.75 0 
7.7118091469 1 0 7.7118091467 1.25 0 7.7118091465 1.5 0 
7.7118091464 1.75 0 7.7118091462 2 0 7.711809146 2.25 0 
7.7118091458 2.5 0 7.7118091457 2.75 0 7.7118091455 3 0 
7.7118091453 3.25 0 7.7118091451 3.5 0 7.711809145 3.75 0 
7.7118091448 4 0 7.7118091446 4.25 0 7.7118091444 4.5 0 
7.7118091443 4.75 0 7.7118091441 5 0 7.7118091439 5.25 0 
7.7118091437 5.5 0 7.7118091436 5.75 0 7.7118091434 6 0 
7.7118091432 6.25 0 7.711809143 6.5 0 7.7118091428 6.75 0 
7.7118091427 7 0 7.7118091425 7.25 0 7.7118091423 7.5 0 
7.7118091421 7.75 0 7.711809142 8 0 7.7118091418 8.25 0 
7.7118091416 8.5 0 7.7118091414 8.75 0 7.7118091413 9 0 
7.7118091411 9.25 0 7.7118091409 9.5 0 7.7118091407 9.75 0 
7.959901341 0.25 0 7.9599013408 0.5 0 7.9599013406 0.75 0 
7.9599013405 1 0 7.9599013403 1.25 0 7.9599013401 1.5 0 
7.9599013399 1.75 0 7.9599013398 2 0 7.9599013396 2.25 0 
7.9599013394 2.5 0 7.9599013393 2.75 0 7.9599013391 3 0 
7.9599013389 3.25 0 7.9599013387 3.5 0 7.9599013386 3.75 0 
7.9599013384 4 0 7.9599013382 4.25 0 7.959901338 4.5 0 
7.9599013379 4.75 0 7.9599013377 5 0 7.9599013375 5.25 0 
7.9599013374 5.5 0 7.9599013372 5.75 0 7.959901337 6 0 
7.9599013368 6.25 0 7.9599013367 6.5 0 7.9599013365 6.75 0 
7.9599013363 7 0 7.9599013361 7.25 0 7.959901336 7.5 0 
7.9599013358 7.75 0 7.9599013356 8 0 7.9599013354 8.25 0 
7.9599013353 8.5 0 7.9599013351 8.75 0 7.9599013349 9 0 
7.9599013348 9.25 0 7.9599013346 9.5 0 7.9599013344 9.75 0 
8.2141958394 0.25 0 8.2141958392 0.5 0 8.2141958391 0.75 0 
8.2141958389 1 0 8.2141958387 1.25 0 8.2141958385 1.5 0 
8.2141958384 1.75 0 8.2141958382 2 0 8.214195838 2.25 0 
8.2141958379 2.5 0 8.2141958377 2.75 0 8.2141958375 3 0 
8.2141958373 3.25 0 8.2141958372 3.5 0 8.214195837 3.75 0 
8.2141958368 4 0 8.2141958366 4.25 0 8.2141958365 4.5 0 
8.2141958363 4.75 0 8.2141958361 5 0 8.2141958359 5.25 0 
8.2141958358 5.5 0 8.2141958356 5.75 0 8.2141958354 6 0 
8.2141958353 6.25 0 8.2141958351 6.5 0 8.2141958349 6.75 0 
8.2141958347 7 0 8.2141958346 7.25 0 8.2141958344 7.5 0 
8.2141958342 7.75 0 8.214195834 8 0 8.2141958339 8.25 0 
8.2141958337 8.5 0 8.2141958335 8.75 0 8.2141958333 9 0 
8.2141958332 9.25 0 8.214195833 9.5 0 8.2141958328 9.75 0 
8.4748477032 0.25 0 8.474847703 0.5 0 8.4748477029 0.75 0 
8.4748477027 1 0 8.4748477025 1.25 0 8.4748477023 1.5 0 
8.4748477022 1.75 0 8.474847702 2 0 8.4748477018 2.25 0 
8.4748477017 2.5 0 8.4748477015 2.75 0 8.4748477013 3 0 
8.4748477011 3.25 0 8.474847701 3.5 0 8.4748477008 3.75 0 
8.4748477006 4 0 8.4748477005 4.25 0 8.4748477003 4.5 0 
8.4748477001 4.75 0 8.4748476999 5 0 8.4748476998 5.25 0 
8.4748476996 5.5 0 8.4748476994 5.75 0 8.4748476993 6 0 
8.4748476991 6.25 0 8.4748476989 6.5 0 8.4748476987 6.75 0 
8.4748476986 7 0 8.4748476984 7.25 0 8.4748476982 7.5 0 
8.4748476981 7.75 0 8.4748476979 8 0 8.4748476977 8.25 0 
8.4748476975 8.5 0 8.4748476974 8.75 0 8.4748476972 9 0 
8.474847697 9.25 0 8.4748476969 9.5 0 8.4748476967 9.75 0 
8.742015864 0.25 0 8.7420158638 0.5 0 8.7420158636 0.75 0 
8.7420158635 1 0 8.7420158633 1.25 0 8.7420158631 1.5 0 
8.742015863 1.75 0 8.7420158628 2 0 8.7420158626 2.25 0 
8.7420158625 2.5 0 8.7420158623 2.75 0 8.7420158621 3 0 
8.7420158619 3.25 0 8.7420158618 3.5 0 8.7420158616 3.75 0 
8.7420158614 4 0 8.7420158613 4.25 0 8.7420158611 4.5 0 
8.7420158609 4.75 0 8.7420158608 5 0 8.7420158606 5.25 0 
8.7420158604 5.5 0 8.7420158602 5.75 0 8.7420158601 6 0 
8.7420158599 6.25 0 8.7420158597 6.5 0 8.7420158596 6.75 0 
8.7420158594 7 0 8.7420158592 7.25 0 8.7420158591 7.5 0 
8.7420158589 7.75 0 8.7420158587 8 0 8.7420158585 8.25 0 
8.7420158584 8.5 0 8.7420158582 8.75 0 8.742015858 9 0 
8.7420158579 9.25 0 8.7420158577 9.5 0 8.7420158575 9.75 0 
9.0158632264 0.25 0 9.0158632263 0.5 0 9.0158632261 0.75 0 
9.0158632259 1 0 9.0158632257 1.25 0 9.0158632256 1.5 0 
9.0158632254 1.75 0 9.0158632252 2 0 9.0158632251 2.25 0 
9.0158632249 2.5 0 9.0158632247 2.75 0 9.0158632246 3 0 
9.0158632244 3.25 0 9.0158632242 3.5 0 9.0158632241 3.75 0 
9.0158632239 4 0 9.0158632237 4.25 0 9.0158632236 4.5 0 
9.0158632234 4.75 0 9.0158632232 5 0 9.0158632231 5.25 0 
9.0158632229 5.5 0 9.0158632227 5.75 0 9.0158632226 6 0 
9.0158632224 6.25 0 9.0158632222 6.5 0 9.015863222 6.75 0 
9.0158632219 7 0 9.0158632217 7.25 0 9.0158632215 7.5 0 
9.0158632214 7.75 0 9.0158632212 8 0 9.015863221 8.25 0 
9.0158632209 8.5 0 9.0158632207 8.75 0 9.0158632205 9 0 
9.0158632204 9.25 0 9.0158632202 9.5 0 9.01586322 9.75 0 
9.2965567702 0.25 0 9.29655677 0.5 0 9.2965567699 0.75 0 
9.2965567697 1 0 9.2965567695 1.25 0 9.2965567694 1.5 0 
9.2965567692 1.75 0 9.296556769 2 0 9.2965567689 2.25 0 
9.2965567687 2.5 0 9.2965567685 2.75 0 9.2965567684 3 0 
9.2965567682 3.25 0 9.296556768 3.5 0 9.2965567679 3.75 0 
9.2965567677 4 0 9.2965567675 4.25 0 9.2965567674 4.5 0 
9.2965567672 4.75 0 9.296556767 5 0 9.2965567669 5.25 0 
9.2965567667 5.5 0 9.2965567665 5.75 0 9.2965567664 6 0 
9.2965567662 6.25 0 9.296556766 6.5 0 9.2965567659 6.75 0 
9.2965567657 7 0 9.2965567655 7.25 0 9.2965567654 7.5 0 
9.2965567652 7.75 0 9.296556765 8 0 9.2965567649 8.25 0 
9.2965567647 8.5 0 9.2965567645 8.75 0 9.2965567644 9 0 
9.2965567642 9.25 0 9.2965567641 9.5 0 9.2965567639 9.75 0 
9.5842676527 0.25 0 9.5842676526 0.5 0 9.5842676524 0.75 0 
9.5842676522 1 0 9.5842676521 1.25 0 9.5842676519 1.5 0 
9.5842676517 1.75 0 9.5842676516 2 0 9.5842676514 2.25 0 
9.5842676512 2.5 0 9.5842676511 2.75 0 9.5842676509 3 0 
9.5842676508 3.25 0 9.5842676506 3.5 0 9.5842676504 3.75 0 
9.5842676503 4 0 9.5842676501 4.25 0 9.5842676499 4.5 0 
9.5842676498 4.75 0 9.5842676496 5 0 9.5842676494 5.25 0 
9.5842676493 5.5 0 9.5842676491 5.75 0 9.584267649 6 0 
9.5842676488 6.25 0 9.5842676486 6.5 0 9.5842676485 6.75 0 
9.5842676483 7 0 9.5842676481 7.25 0 9.584267648 7.5 0 
9.5842676478 7.75 0 9.5842676476 8 0 9.5842676475 8.25 0 
9.5842676473 8.5 0 9.5842676471 8.75 0 9.584267647 9 0 
9.5842676468 9.25 0 9.5842676467 9.5 0 9.5842676465 9.75 0 
9.8791713074 0.25 0 9.8791713072 0.5 0 9.879171307 0.75 0 
9.8791713069 1 0 9.8791713067 1.25 0 9.8791713066 1.5 0 
9.8791713064 1.75 0 9.8791713062 2 0 9.8791713061 2.25 0 
9.8791713059 2.5 0 9.8791713057 2.75 0 9.8791713056 3 0 
9.8791713054 3.25 0 9.8791713053 3.5 0 9.8791713051 3.75 0 
9.8791713049 4 0 9.8791713048 4.25 0 9.8791713046 4.5 0 
9.8791713045 4.75 0 9.8791713043 5 0 9.8791713041 5.25 0 
9.879171304 5.5 0 9.8791713038 5.75 0 9.8791713036 6 0 
9.8791713035 6.25 0 9.8791713033 6.5 0 9.8791713032 6.75 0 
9.879171303 7 0 9.8791713028 7.25 0 9.8791713027 7.5 0 
9.8791713025 7.75 0 9.8791713024 8 0 9.8791713022 8.25 0 
9.879171302 8.5 0 9.8791713019 8.75 0 9.8791713017 9 0 
9.8791713015 9.25 0 9.8791713014 9.5 0 9.8791713012 9.75 0 
10.181447556 0.25 0 10.181447556 0.5 0 10.181447556 0.75 0 
10.181447556 1 0 10.181447556 1.25 0 10.181447555 1.5 0 
10.181447555 1.75 0 10.181447555 2 0 10.181447555 2.25 0 
10.181447555 2.5 0 10.181447555 2.75 0 10.181447554 3 0 
10.181447554 3.25 0 10.181447554 3.5 0 10.181447554 3.75 0 
10.181447554 4 0 10.181447554 4.25 0 10.181447553 4.5 0 
10.181447553 4.75 0 10.181447553 5 0 10.181447553 5.25 0 
10.181447553 5.5 0 10.181447553 5.75 0 10.181447553 6 0 
10.181447552 6.25 0 10.181447552 6.5 0 10.181447552 6.75 0 
10.181447552 7 0 10.181447552 7.25 0 10.181447552 7.5 0 
10.181447551 7.75 0 10.181447551 8 0 10.181447551 8.25 0 
10.181447551 8.5 0 10.181447551 8.75 0 10.181447551 9 0 
10.18144755 9.25 0 10.18144755 9.5 0 10.18144755 9.75 0 
10.491280714 0.25 0 10.491280714 0.5 0 10.491280714 0.75 0 
10.491280714 1 0 10.491280714 1.25 0 10.491280714 1.5 0 
10.491280713 1.75 0 10.491280713 2 0 10.491280713 2.25 0 
10.491280713 2.5 0 10.491280713 2.75 0 10.491280713 3 0 
10.491280712 3.25 0 10.491280712 3.5 0 10.491280712 3.75 0 
10.491280712 4 0 10.491280712 4.25 0 10.491280712 4.5 0 
10.491280712 4.75 0 10.491280711 5 0 10.491280711 5.25 0 
10.491280711 5.5 0 10.491280711 5.75 0 10.491280711 6 0 
10.491280711 6.25 0 10.49128071 6.5 0 10.49128071 6.75 0 
10.49128071 7 0 10.49128071 7.25 0 10.49128071 7.5 0 
10.49128071 7.75 0 10.49128071 8 0 10.491280709 8.25 0 
10.491280709 8.5 0 10.491280709 8.75 0 10.491280709 9 0 
10.491280709 9.25 0 10.491280709 9.5 0 10.491280708 9.75 0 
10.8088597 0.25 0 10.8088597 0.5 0 10.8088597 0.75 0 
10.808859699 1 0 10.808859699 1.25 0 10.808859699 1.5 0 
10.808859699 1.75 0 10.808859699 2 0 10.808859699 2.25 0 
10.808859698 2.5 0 10.808859698 2.75 0 10.808859698 3 0 
10.808859698 3.25 0 10.808859698 3.5 0 10.808859698 3.75 0 
10.808859698 4 0 10.808859697 4.25 0 10.808859697 4.5 0 
10.808859697 4.75 0 10.808859697 5 0 10.808859697 5.25 0 
10.808859697 5.5 0 10.808859696 5.75 0 10.808859696 6 0 
10.808859696 6.25 0 10.808859696 6.5 0 10.808859696 6.75 0 
10.808859696 7 0 10.808859696 7.25 0 10.808859695 7.5 0 
10.808859695 7.75 0 10.808859695 8 0 10.808859695 8.25 0 
10.808859695 8.5 0 10.808859695 8.75 0 10.808859695 9 0 
10.808859694 9.25 0 10.808859694 9.5 0 10.808859694 9.75 0 
11.134378158 0.25 0 11.134378158 0.5 0 11.134378158 0.75 0 
11.134378157 1 0 11.134378157 1.25 0 11.134378157 1.5 0 
11.134378157 1.75 0 11.134378157 2 0 11.134378157 2.25 0 
11.134378157 2.5 0 11.134378156 2.75 0 11.134378156 3 0 
11.134378156 3.25 0 11.134378156 3.5 0 11.134378156 3.75 0 
11.134378156 4 0 11.134378156 4.25 0 11.134378155 4.5 0 
11.134378155 4.75 0 11.134378155 5 0 11.134378155 5.25 0 
11.134378155 5.5 0 11.134378155 5.75 0 11.134378154 6 0 
11.134378154 6.25 0 11.134378154 6.5 0 11.134378154 6.75 0 
11.134378154 7 0 11.134378154 7.25 0 11.134378154 7.5 0 
11.134378153 7.75 0 11.134378153 8 0 11.134378153 8.25 0 
11.134378153 8.5 0 11.134378153 8.75 0 11.134378153 9 0 
11.134378153 9.25 0 11.134378152 9.5 0 11.134378152 9.75 0 
11.468034578 0.25 0 11.468034578 0.5 0 11.468034578 0.75 0 
11.468034577 1 0 11.468034577 1.25 0 11.468034577 1.5 0 
11.468034577 1.75 0 11.468034577 2 0 11.468034577 2.25 0 
11.468034577 2.5 0 11.468034576 2.75 0 11.468034576 3 0 
11.468034576 3.25 0 11.468034576 3.5 0 11.468034576 3.75 0 
11.468034576 4 0 11.468034576 4.25 0 11.468034575 4.5 0 
11.468034575 4.75 0 11.468034575 5 0 11.468034575 5.25 0 
11.468034575 5.5 0 11.468034575 5.75 0 11.468034575 6 0 
11.468034574 6.25 0 11.468034574 6.5 0 11.468034574 6.75 0 
11.468034574 7 0 11.468034574 7.25 0 11.468034574 7.5 0 
11.468034573 7.75 0 11.468034573 8 0 11.468034573 8.25 0 
11.468034573 8.5 0 11.468034573 8.75 0 11.468034573 9 0 
11.468034573 9.25 0 11.468034572 9.5 0 11.468034572 9.75 0 
11.810032411 0.25 0 11.810032411 0.5 0 11.810032411 0.75 0 
11.810032411 1 0 11.81003241 1.25 0 11.81003241 1.5 0 
11.81003241 1.75 0 11.81003241 2 0 11.81003241 2.25 0 
11.81003241 2.5 0 11.81003241 2.75 0 11.810032409 3 0 
11.810032409 3.25 0 11.810032409 3.5 0 11.810032409 3.75 0 
11.810032409 4 0 11.810032409 4.25 0 11.810032409 4.5 0 
11.810032408 4.75 0 11.810032408 5 0 11.810032408 5.25 0 
11.810032408 5.5 0 11.810032408 5.75 0 11.810032408 6 0 
11.810032408 6.25 0 11.810032407 6.5 0 11.810032407 6.75 0 
11.810032407 7 0 11.810032407 7.25 0 11.810032407 7.5 0 
11.810032407 7.75 0 11.810032407 8 0 11.810032406 8.25 0 
11.810032406 8.5 0 11.810032406 8.75 0 11.810032406 9 0 
11.810032406 9.25 0 11.810032406 9.5 0 11.810032406 9.75 0 
12.16058019 0.25 0 12.16058019 0.5 0 12.16058019 0.75 0 
12.160580189 1 0 12.160580189 1.25 0 12.160580189 1.5 0 
12.160580189 1.75 0 12.160580189 2 0 12.160580189 2.25 0 
12.160580189 2.5 0 12.160580188 2.75 0 12.160580188 3 0 
12.160580188 3.25 0 12.160580188 3.5 0 12.160580188 3.75 0 
12.160580188 4 0 12.160580188 4.25 0 12.160580187 4.5 0 
12.160580187 4.75 0 12.160580187 5 0 12.160580187 5.25 0 
12.160580187 5.5 0 12.160580187 5.75 0 12.160580187 6 0 
12.160580186 6.25 0 12.160580186 6.5 0 12.160580186 6.75 0 
12.160580186 7 0 12.160580186 7.25 0 12.160580186 7.5 0 
12.160580186 7.75 0 12.160580186 8 0 12.160580185 8.25 0 
12.160580185 8.5 0 12.160580185 8.75 0 12.160580185 9 0 
12.160580185 9.25 0 12.160580185 9.5 0 12.160580185 9.75 0 
12.519891663 0.25 0 12.519891663 0.5 0 12.519891662 0.75 0 
12.519891662 1 0 12.519891662 1.25 0 12.519891662 1.5 0 
12.519891662 1.75 0 12.519891662 2 0 12.519891662 2.25 0 
12.519891661 2.5 0 12.519891661 2.75 0 12.519891661 3 0 
12.519891661 3.25 0 12.519891661 3.5 0 12.519891661 3.75 0 
12.519891661 4 0 12.51989166 4.25 0 12.51989166 4.5 0 
12.51989166 4.75 0 12.51989166 5 0 12.51989166 5.25 0 
12.51989166 5.5 0 12.51989166 5.75 0 12.51989166 6 0 
12.519891659 6.25 0 12.519891659 6.5 0 12.519891659 6.75 0 
12.519891659 7 0 12.519891659 7.25 0 12.519891659 7.5 0 
12.519891659 7.75 0 12.519891658 8 0 12.519891658 8.25 0 
12.519891658 8.5 0 12.519891658 8.75 0 12.519891658 9 0 
12.519891658 9.25 0 12.519891658 9.5 0 12.519891658 9.75 0 
12.888185921 0.25 0 12.888185921 0.5 0 12.888185921 0.75 0 
12.888185921 1 0 12.888185921 1.25 0 12.888185921 1.5 0 
12.88818592 1.75 0 12.88818592 2 0 12.88818592 2.25 0 
12.88818592 2.5 0 12.88818592 2.75 0 12.88818592 3 0 
12.88818592 3.25 0 12.88818592 3.5 0 12.888185919 3.75 0 
12.888185919 4 0 12.888185919 4.25 0 12.888185919 4.5 0 
12.888185919 4.75 0 12.888185919 5 0 12.888185919 5.25 0 
12.888185919 5.5 0 12.888185918 5.75 0 12.888185918 6 0 
12.888185918 6.25 0 12.888185918 6.5 0 12.888185918 6.75 0 
12.888185918 7 0 12.888185918 7.25 0 12.888185917 7.5 0 
12.888185917 7.75 0 12.888185917 8 0 12.888185917 8.25 0 
12.888185917 8.5 0 12.888185917 8.75 0 12.888185917 9 0 
12.888185917 9.25 0 12.888185916 9.5 0 12.888185916 9.75 0 
13.265687534 0.25 0 13.265687534 0.5 0 13.265687534 0.75 0 
13.265687534 1 0 13.265687534 1.25 0 13.265687534 1.5 0 
13.265687533 1.75 0 13.265687533 2 0 13.265687533 2.25 0 
13.265687533 2.5 0 13.265687533 2.75 0 13.265687533 3 0 
13.265687533 3.25 0 13.265687533 3.5 0 13.265687532 3.75 0 
13.265687532 4 0 13.265687532 4.25 0 13.265687532 4.5 0 
13.265687532 4.75 0 13.265687532 5 0 13.265687532 5.25 0 
13.265687532 5.5 0 13.265687531 5.75 0 13.265687531 6 0 
13.265687531 6.25 0 13.265687531 6.5 0 13.265687531 6.75 0 
13.265687531 7 0 13.265687531 7.25 0 13.265687531 7.5 0 
13.26568753 7.75 0 13.26568753 8 0 13.26568753 8.25 0 
13.26568753 8.5 0 13.26568753 8.75 0 13.26568753 9 0 
13.26568753 9.25 0 13.26568753 9.5 0 13.265687529 9.75 0 
13.652626688 0.25 0 13.652626688 0.5 0 13.652626688 0.75 0 
13.652626687 1 0 13.652626687 1.25 0 13.652626687 1.5 0 
13.652626687 1.75 0 13.652626687 2 0 13.652626687 2.25 0 
13.652626687 2.5 0 13.652626687 2.75 0 13.652626686 3 0 
13.652626686 3.25 0 13.652626686 3.5 0 13.652626686 3.75 0 
13.652626686 4 0 13.652626686 4.25 0 13.652626686 4.5 0 
13.652626686 4.75 0 13.652626685 5 0 13.652626685 5.25 0 
13.652626685 5.5 0 13.652626685 5.75 0 13.652626685 6 0 
13.652626685 6.25 0 13.652626685 6.5 0 13.652626685 6.75 0 
13.652626685 7 0 13.652626684 7.25 0 13.652626684 7.5 0 
13.652626684 7.75 0 13.652626684 8 0 13.652626684 8.25 0 
13.652626684 8.5 0 13.652626684 8.75 0 13.652626684 9 0 
13.652626683 9.25 0 13.652626683 9.5 0 13.652626683 9.75 0 
14.049239319 0.25 0 14.049239319 0.5 0 14.049239319 0.75 0 
14.049239319 1 0 14.049239319 1.25 0 14.049239319 1.5 0 
14.049239319 1.75 0 14.049239319 2 0 14.049239318 2.25 0 
14.049239318 2.5 0 14.049239318 2.75 0 14.049239318 3 0 
14.049239318 3.25 0 14.049239318 3.5 0 14.049239318 3.75 0 
14.049239318 4 0 14.049239318 4.25 0 14.049239317 4.5 0 
14.049239317 4.75 0 14.049239317 5 0 14.049239317 5.25 0 
14.049239317 5.5 0 14.049239317 5.75 0 14.049239317 6 0 
14.049239317 6.25 0 14.049239317 6.5 0 14.049239316 6.75 0 
14.049239316 7 0 14.049239316 7.25 0 14.049239316 7.5 0 
14.049239316 7.75 0 14.049239316 8 0 14.049239316 8.25 0 
14.049239316 8.5 0 14.049239316 8.75 0 14.049239315 9 0 
14.049239315 9.25 0 14.049239315 9.5 0 14.049239315 9.75 0 
14.455767267 0.25 0 14.455767267 0.5 0 14.455767267 0.75 0 
14.455767267 1 0 14.455767267 1.25 0 14.455767267 1.5 0 
14.455767266 1.75 0 14.455767266 2 0 14.455767266 2.25 0 
14.455767266 2.5 0 14.455767266 2.75 0 14.455767266 3 0 
14.455767266 3.25 0 14.455767266 3.5 0 14.455767266 3.75 0 
14.455767266 4 0 14.455767265 4.25 0 14.455767265 4.5 0 
14.455767265 4.75 0 14.455767265 5 0 14.455767265 5.25 0 
14.455767265 5.5 0 14.455767265 5.75 0 14.455767265 6 0 
14.455767265 6.25 0 14.455767264 6.5 0 14.455767264 6.75 0 
14.455767264 7 0 14.455767264 7.25 0 14.455767264 7.5 0 
14.455767264 7.75 0 14.455767264 8 0 14.455767264 8.25 0 
14.455767264 8.5 0 14.455767263 8.75 0 14.455767263 9 0 
14.455767263 9.25 0 14.455767263 9.5 0 14.455767263 9.75 0 
14.872458413 0.25 0 14.872458413 0.5 0 14.872458413 0.75 0 
14.872458413 1 0 14.872458413 1.25 0 14.872458413 1.5 0 
14.872458413 1.75 0 14.872458413 2 0 14.872458413 2.25 0 
14.872458412 2.5 0 14.872458412 2.75 0 14.872458412 3 0 
14.872458412 3.25 0 14.872458412 3.5 0 14.872458412 3.75 0 
14.872458412 4 0 14.872458412 4.25 0 14.872458412 4.5 0 
14.872458412 4.75 0 14.872458411 5 0 14.872458411 5.25 0 
14.872458411 5.5 0 14.872458411 5.75 0 14.872458411 6 0 
14.872458411 6.25 0 14.872458411 6.5 0 14.872458411 6.75 0 
14.872458411 7 0 14.872458411 7.25 0 14.87245841 7.5 0 
14.87245841 7.75 0 14.87245841 8 0 14.87245841 8.25 0 
14.87245841 8.5 0 14.87245841 8.75 0 14.87245841 9 0 
14.87245841 9.25 0 14.87245841 9.5 0 14.87245841 9.75 0 
15.299566839 0.25 0 15.299566839 0.5 0 15.299566839 0.75 0 
15.299566839 1 0 15.299566839 1.25 0 15.299566839 1.5 0 
15.299566839 1.75 0 15.299566839 2 0 15.299566839 2.25 0 
15.299566838 2.5 0 15.299566838 2.75 0 15.299566838 3 0 
15.299566838 3.25 0 15.299566838 3.5 0 15.299566838 3.75 0 
15.299566838 4 0 15.299566838 4.25 0 15.299566838 4.5 0 
15.299566838 4.75 0 15.299566838 5 0 15.299566837 5.25 0 
15.299566837 5.5 0 15.299566837 5.75 0 15.299566837 6 0 
15.299566837 6.25 0 15.299566837 6.5 0 15.299566837 6.75 0 
15.299566837 7 0 15.299566837 7.25 0 15.299566837 7.5 0 
15.299566837 7.75 0 15.299566836 8 0 15.299566836 8.25 0 
15.299566836 8.5 0 15.299566836 8.75 0 15.299566836 9 0 
15.299566836 9.25 0 15.299566836 9.5 0 15.299566836 9.75 0 
15.737352979 0.25 0 15.737352979 0.5 0 15.737352979 0.75 0 
15.737352979 1 0 15.737352979 1.25 0 15.737352979 1.5 0 
15.737352979 1.75 0 15.737352978 2 0 15.737352978 2.25 0 
15.737352978 2.5 0 15.737352978 2.75 0 15.737352978 3 0 
15.737352978 3.25 0 15.737352978 3.5 0 15.737352978 3.75 0 
15.737352978 4 0 15.737352978 4.25 0 15.737352978 4.5 0 
15.737352978 4.75 0 15.737352977 5 0 15.737352977 5.25 0 
15.737352977 5.5 0 15.737352977 5.75 0 15.737352977 6 0 
15.737352977 6.25 0 15.737352977 6.5 0 15.737352977 6.75 0 
15.737352977 7 0 15.737352977 7.25 0 15.737352977 7.5 0 
15.737352977 7.75 0 15.737352976 8 0 15.737352976 8.25 0 
15.737352976 8.5 0 15.737352976 8.75 0 15.737352976 9 0 
15.737352976 9.25 0 15.737352976 9.5 0 15.737352976 9.75 0 
16.186083771 0.25 0 16.186083771 0.5 0 16.186083771 0.75 0 
16.186083771 1 0 16.186083771 1.25 0 16.186083771 1.5 0 
16.186083771 1.75 0 16.186083771 2 0 16.186083771 2.25 0 
16.186083771 2.5 0 16.18608377 2.75 0 16.18608377 3 0 
16.18608377 3.25 0 16.18608377 3.5 0 16.18608377 3.75 0 
16.18608377 4 0 16.18608377 4.25 0 16.18608377 4.5 0 
16.18608377 4.75 0 16.18608377 5 0 16.18608377 5.25 0 
16.18608377 5.5 0 16.18608377 5.75 0 16.186083769 6 0 
16.186083769 6.25 0 16.186083769 6.5 0 16.186083769 6.75 0 
16.186083769 7 0 16.186083769 7.25 0 16.186083769 7.5 0 
16.186083769 7.75 0 16.186083769 8 0 16.186083769 8.25 0 
16.186083769 8.5 0 16.186083769 8.75 0 16.186083769 9 0 
16.186083768 9.25 0 16.186083768 9.5 0 16.186083768 9.75 0 
16.646032833 0.25 0 16.646032833 0.5 0 16.646032833 0.75 0 
16.646032833 1 0 16.646032833 1.25 0 16.646032832 1.5 0 
16.646032832 1.75 0 16.646032832 2 0 16.646032832 2.25 0 
16.646032832 2.5 0 16.646032832 2.75 0 16.646032832 3 0 
16.646032832 3.25 0 16.646032832 3.5 0 16.646032832 3.75 0 
16.646032832 4 0 16.646032832 4.25 0 16.646032832 4.5 0 
16.646032832 4.75 0 16.646032831 5 0 16.646032831 5.25 0 
16.646032831 5.5 0 16.646032831 5.75 0 16.646032831 6 0 
16.646032831 6.25 0 16.646032831 6.5 0 16.646032831 6.75 0 
16.646032831 7 0 16.646032831 7.25 0 16.646032831 7.5 0 
16.646032831 7.75 0 16.646032831 8 0 16.646032831 8.25 0 
16.64603283 8.5 0 16.64603283 8.75 0 16.64603283 9 0 
16.64603283 9.25 0 16.64603283 9.5 0 16.64603283 9.75 0 
17.117480623 0.25 0 17.117480623 0.5 0 17.117480623 0.75 0 
17.117480622 1 0 17.117480622 1.25 0 17.117480622 1.5 0 
17.117480622 1.75 0 17.117480622 2 0 17.117480622 2.25 0 
17.117480622 2.5 0 17.117480622 2.75 0 17.117480622 3 0 
17.117480622 3.25 0 17.117480622 3.5 0 17.117480622 3.75 0 
17.117480622 4 0 17.117480622 4.25 0 17.117480622 4.5 0 
17.117480622 4.75 0 17.117480621 5 0 17.117480621 5.25 0 
17.117480621 5.5 0 17.117480621 5.75 0 17.117480621 6 0 
17.117480621 6.25 0 17.117480621 6.5 0 17.117480621 6.75 0 
17.117480621 7 0 17.117480621 7.25 0 17.117480621 7.5 0 
17.117480621 7.75 0 17.117480621 8 0 17.117480621 8.25 0 
17.117480621 8.5 0 17.117480621 8.75 0 17.11748062 9 0 
17.11748062 9.25 0 17.11748062 9.5 0 17.11748062 9.75 0 
17.600714604 0.25 0 17.600714604 0.5 0 17.600714604 0.75 0 
17.600714604 1 0 17.600714604 1.25 0 17.600714604 1.5 0 
17.600714604 1.75 0 17.600714604 2 0 17.600714604 2.25 0 
17.600714604 2.5 0 17.600714604 2.75 0 17.600714604 3 0 
17.600714604 3.25 0 17.600714604 3.5 0 17.600714604 3.75 0 
17.600714604 4 0 17.600714603 4.25 0 17.600714603 4.5 0 
17.600714603 4.75 0 17.600714603 5 0 17.600714603 5.25 0 
17.600714603 5.5 0 17.600714603 5.75 0 17.600714603 6 0 
17.600714603 6.25 0 17.600714603 6.5 0 17.600714603 6.75 0 
17.600714603 7 0 17.600714603 7.25 0 17.600714603 7.5 0 
17.600714603 7.75 0 17.600714603 8 0 17.600714603 8.25 0 
17.600714603 8.5 0 17.600714603 8.75 0 17.600714602 9 0 
17.600714602 9.25 0 17.600714602 9.5 0 17.600714602 9.75 0 
18.096029435 0.25 0 18.096029435 0.5 0 18.096029435 0.75 0 
18.096029435 1 0 18.096029435 1.25 0 18.096029435 1.5 0 
18.096029435 1.75 0 18.096029435 2 0 18.096029435 2.25 0 
18.096029435 2.5 0 18.096029435 2.75 0 18.096029435 3 0 
18.096029435 3.25 0 18.096029435 3.5 0 18.096029435 3.75 0 
18.096029435 4 0 18.096029435 4.25 0 18.096029435 4.5 0 
18.096029435 4.75 0 18.096029435 5 0 18.096029435 5.25 0 
18.096029434 5.5 0 18.096029434 5.75 0 18.096029434 6 0 
18.096029434 6.25 0 18.096029434 6.5 0 18.096029434 6.75 0 
18.096029434 7 0 18.096029434 7.25 0 18.096029434 7.5 0 
18.096029434 7.75 0 18.096029434 8 0 18.096029434 8.25 0 
18.096029434 8.5 0 18.096029434 8.75 0 18.096029434 9 0 
18.096029434 9.25 0 18.096029434 9.5 0 18.096029434 9.75 0 
18.603727139 0.25 0 18.603727138 0.5 0 18.603727138 0.75 0 
18.603727138 1 0 18.603727138 1.25 0 18.603727138 1.5 0 
18.603727138 1.75 0 18.603727138 2 0 18.603727138 2.25 0 
18.603727138 2.5 0 18.603727138 2.75 0 18.603727138 3 0 
18.603727138 3.25 0 18.603727138 3.5 0 18.603727138 3.75 0 
18.603727138 4 0 18.603727138 4.25 0 18.603727138 4.5 0 
18.603727138 4.75 0 18.603727138 5 0 18.603727138 5.25 0 
18.603727138 5.5 0 18.603727138 5.75 0 18.603727138 6 0 
18.603727138 6.25 0 18.603727138 6.5 0 18.603727138 6.75 0 
18.603727138 7 0 18.603727138 7.25 0 18.603727138 7.5 0 
18.603727138 7.75 0 18.603727137 8 0 18.603727137 8.25 0 
18.603727137 8.5 0 18.603727137 8.75 0 18.603727137 9 0 
18.603727137 9.25 0 18.603727137 9.5 0 18.603727137 9.75 0 
19.124117281 0.25 0 19.124117281 0.5 0 19.124117281 0.75 0 
19.124117281 1 0 19.124117281 1.25 0 19.124117281 1.5 0 
19.124117281 1.75 0 19.124117281 2 0 19.124117281 2.25 0 
19.124117281 2.5 0 19.124117281 2.75 0 19.124117281 3 0 
19.124117281 3.25 0 19.124117281 3.5 0 19.124117281 3.75 0 
19.124117281 4 0 19.124117281 4.25 0 19.124117281 4.5 0 
19.124117281 4.75 0 19.124117281 5 0 19.124117281 5.25 0 
19.124117281 5.5 0 19.124117281 5.75 0 19.124117281 6 0 
19.124117281 6.25 0 19.124117281 6.5 0 19.124117281 6.75 0 
19.124117281 7 0 19.12411728 7.25 0 19.12411728 7.5 0 
19.12411728 7.75 0 19.12411728 8 0 19.12411728 8.25 0 
19.12411728 8.5 0 19.12411728 8.75 0 19.12411728 9 0 
19.12411728 9.25 0 19.12411728 9.5 0 19.12411728 9.75 0 
19.657517178 0.25 0 19.657517178 0.5 0 19.657517177 0.75 0 
19.657517177 1 0 19.657517177 1.25 0 19.657517177 1.5 0 
19.657517177 1.75 0 19.657517177 2 0 19.657517177 2.25 0 
19.657517177 2.5 0 19.657517177 2.75 0 19.657517177 3 0 
19.657517177 3.25 0 19.657517177 3.5 0 19.657517177 3.75 0 
19.657517177 4 0 19.657517177 4.25 0 19.657517177 4.5 0 
19.657517177 4.75 0 19.657517177 5 0 19.657517177 5.25 0 
19.657517177 5.5 0 19.657517177 5.75 0 19.657517177 6 0 
19.657517177 6.25 0 19.657517177 6.5 0 19.657517177 6.75 0 
19.657517177 7 0 19.657517177 7.25 0 19.657517177 7.5 0 
19.657517177 7.75 0 19.657517177 8 0 19.657517177 8.25 0 
19.657517177 8.5 0 19.657517177 8.75 0 19.657517177 9 0 
19.657517177 9.25 0 19.657517177 9.5 0 19.657517177 9.75 0 
20.204252075 0.25 0 20.204252075 0.5 0 20.204252075 0.75 0 
20.204252075 1 0 20.204252075 1.25 0 20.204252075 1.5 0 
20.204252075 1.75 0 20.204252075 2 0 20.204252075 2.25 0 
20.204252075 2.5 0 20.204252075 2.75 0 20.204252075 3 0 
20.204252075 3.25 0 20.204252075 3.5 0 20.204252075 3.75 0 
20.204252075 4 0 20.204252075 4.25 0 20.204252075 4.5 0 
20.204252075 4.75 0 20.204252075 5 0 20.204252075 5.25 0 
20.204252075 5.5 0 20.204252075 5.75 0 20.204252075 6 0 
20.204252075 6.25 0 20.204252075 6.5 0 20.204252075 6.75 0 
20.204252075 7 0 20.204252075 7.25 0 20.204252075 7.5 0 
20.204252075 7.75 0 20.204252075 8 0 20.204252075 8.25 0 
20.204252075 8.5 0 20.204252075 8.75 0 20.204252075 9 0 
20.204252075 9.25 0 20.204252075 9.5 0 20.204252075 9.75 0 
20.764655347 0.25 0 20.764655347 0.5 0 20.764655347 0.75 0 
20.764655347 1 0 20.764655347 1.25 0 20.764655347 1.5 0 
20.764655347 1.75 0 20.764655347 2 0 20.764655347 2.25 0 
20.764655347 2.5 0 20.764655347 2.75 0 20.764655347 3 0 
20.764655347 3.25 0 20.764655347 3.5 0 20.764655347 3.75 0 
20.764655347 4 0 20.764655347 4.25 0 20.764655347 4.5 0 
20.764655347 4.75 0 20.764655347 5 0 20.764655347 5.25 0 
20.764655347 5.5 0 20.764655347 5.75 0 20.764655347 6 0 
20.764655347 6.25 0 20.764655347 6.5 0 20.764655347 6.75 0 
20.764655347 7 0 20.764655347 7.25 0 20.764655347 7.5 0 
20.764655347 7.75 0 20.764655347 8 0 20.764655347 8.25 0 
20.764655347 8.5 0 20.764655347 8.75 0 20.764655347 9 0 
20.764655347 9.25 0 20.764655347 9.5 0 20.764655347 9.75 0 
21.339068701 0.25 0 21.339068701 0.5 0 21.339068701 0.75 0 
21.339068701 1 0 21.339068701 1.25 0 21.339068701 1.5 0 
21.339068701 1.75 0 21.339068701 2 0 21.339068701 2.25 0 
21.339068701 2.5 0 21.339068701 2.75 0 21.339068701 3 0 
21.339068701 3.25 0 21.339068701 3.5 0 21.339068701 3.75 0 
21.339068701 4 0 21.339068702 4.25 0 21.339068702 4.5 0 
21.339068702 4.75 0 21.339068702 5 0 21.339068702 5.25 0 
21.339068702 5.5 0 21.339068702 5.75 0 21.339068702 6 0 
21.339068702 6.25 0 21.339068702 6.5 0 21.339068702 6.75 0 
21.339068702 7 0 21.339068702 7.25 0 21.339068702 7.5 0 
21.339068702 7.75 0 21.339068702 8 0 21.339068702 8.25 0 
21.339068702 8.5 0 21.339068702 8.75 0 21.339068702 9 0 
21.339068702 9.25 0 21.339068702 9.5 0 21.339068702 9.75 0 
21.927842387 0.25 0 21.927842387 0.5 0 21.927842387 0.75 0 
21.927842387 1 0 21.927842387 1.25 0 21.927842387 1.5 0 
21.927842387 1.75 0 21.927842387 2 0 21.927842387 2.25 0 
21.927842387 2.5 0 21.927842387 2.75 0 21.927842387 3 0 
21.927842387 3.25 0 21.927842387 3.5 0 21.927842387 3.75 0 
21.927842387 4 0 21.927842387 4.25 0 21.927842387 4.5 0 
21.927842387 4.75 0 21.927842387 5 0 21.927842387 5.25 0 
21.927842387 5.5 0 21.927842388 5.75 0 21.927842388 6 0 
21.927842388 6.25 0 21.927842388 6.5 0 21.927842388 6.75 0 
21.927842388 7 0 21.927842388 7.25 0 21.927842388 7.5 0 
21.927842388 7.75 0 21.927842388 8 0 21.927842388 8.25 0 
21.927842388 8.5 0 21.927842388 8.75 0 21.927842388 9 0 
21.927842388 9.25 0 21.927842388 9.5 0 21.927842388 9.75 0 
22.531335412 0.25 0 22.531335412 0.5 0 22.531335413 0.75 0 
22.531335413 1 0 22.531335413 1.25 0 22.531335413 1.5 0 
22.531335413 1.75 0 22.531335413 2 0 22.531335413 2.25 0 
22.531335413 2.5 0 22.531335413 2.75 0 22.531335413 3 0 
22.531335413 3.25 0 22.531335413 3.5 0 22.531335413 3.75 0 
22.531335413 4 0 22.531335413 4.25 0 22.531335413 4.5 0 
22.531335413 4.75 0 22.531335413 5 0 22.531335413 5.25 0 
22.531335413 5.5 0 22.531335414 5.75 0 22.531335414 6 0 
22.531335414 6.25 0 22.531335414 6.5 0 22.531335414 6.75 0 
22.531335414 7 0 22.531335414 7.25 0 22.531335414 7.5 0 
22.531335414 7.75 0 22.531335414 8 0 22.531335414 8.25 0 
22.531335414 8.5 0 22.531335414 8.75 0 22.531335414 9 0 
22.531335414 9.25 0 22.531335414 9.5 0 22.531335414 9.75 0 
23.149915765 0.25 0 23.149915765 0.5 0 23.149915765 0.75 0 
23.149915765 1 0 23.149915765 1.25 0 23.149915765 1.5 0 
23.149915765 1.75 0 23.149915765 2 0 23.149915765 2.25 0 
23.149915766 2.5 0 23.149915766 2.75 0 23.149915766 3 0 
23.149915766 3.25 0 23.149915766 3.5 0 23.149915766 3.75 0 
23.149915766 4 0 23.149915766 4.25 0 23.149915766 4.5 0 
23.149915766 4.75 0 23.149915766 5 0 23.149915766 5.25 0 
23.149915766 5.5 0 23.149915766 5.75 0 23.149915766 6 0 
23.149915767 6.25 0 23.149915767 6.5 0 23.149915767 6.75 0 
23.149915767 7 0 23.149915767 7.25 0 23.149915767 7.5 0 
23.149915767 7.75 0 23.149915767 8 0 23.149915767 8.25 0 
23.149915767 8.5 0 23.149915767 8.75 0 23.149915767 9 0 
23.149915767 9.25 0 23.149915767 9.5 0 23.149915767 9.75 0 
23.783960627 0.25 0 23.783960627 0.5 0 23.783960627 0.75 0 
23.783960627 1 0 23.783960628 1.25 0 23.783960628 1.5 0 
23.783960628 1.75 0 23.783960628 2 0 23.783960628 2.25 0 
23.783960628 2.5 0 23.783960628 2.75 0 23.783960628 3 0 
23.783960628 3.25 0 23.783960628 3.5 0 23.783960628 3.75 0 
23.783960628 4 0 23.783960629 4.25 0 23.783960629 4.5 0 
23.783960629 4.75 0 23.783960629 5 0 23.783960629 5.25 0 
23.783960629 5.5 0 23.783960629 5.75 0 23.783960629 6 0 
23.783960629 6.25 0 23.783960629 6.5 0 23.783960629 6.75 0 
23.783960629 7 0 23.78396063 7.25 0 23.78396063 7.5 0 
23.78396063 7.75 0 23.78396063 8 0 23.78396063 8.25 0 
23.78396063 8.5 0 23.78396063 8.75 0 23.78396063 9 0 
23.78396063 9.25 0 23.78396063 9.5 0 23.78396063 9.75 0 
24.433856613 0.25 0 24.433856613 0.5 0 24.433856613 0.75 0 
24.433856613 1 0 24.433856614 1.25 0 24.433856614 1.5 0 
24.433856614 1.75 0 24.433856614 2 0 24.433856614 2.25 0 
24.433856614 2.5 0 24.433856614 2.75 0 24.433856614 3 0 
24.433856614 3.25 0 24.433856614 3.5 0 24.433856615 3.75 0 
24.433856615 4 0 24.433856615 4.25 0 24.433856615 4.5 0 
24.433856615 4.75 0 24.433856615 5 0 24.433856615 5.25 0 
24.433856615 5.5 0 24.433856615 5.75 0 24.433856615 6 0 
24.433856616 6.25 0 24.433856616 6.5 0 24.433856616 6.75 0 
24.433856616 7 0 24.433856616 7.25 0 24.433856616 7.5 0 
24.433856616 7.75 0 24.433856616 8 0 24.433856616 8.25 0 
24.433856616 8.5 0 24.433856617 8.75 0 24.433856617 9 0 
24.433856617 9.25 0 24.433856617 9.5 0 24.433856617 9.75 0 

CELLS 12321 49280
OFFSETS vtktypeint64
0 4 8 12 16 20 24 28 32 
36 40 44 48 52 56 60 64 68 
72 76 80 84 88 92 96 100 104 
108 112 116 120 124 128 132 136 140 
144 148 152 156 160 164 168 172 176 
180 184 188 192 196 200 204 208 212 
216 220 224 228 232 236 240 244 248 
252 256 260 264 268 272 276 280 284 
288 292 296 300 304 308 312 316 320 
324 328 332 336 340 344 348 352 356 
360 364 368 372 376 380 384 388 392 
396 400 404 408 412 416 420 424 428 
432 436 440 444 448 452 456 460 464 
468 472 476 480 484 488 492 496 500 
504 508 512 516 520 524 528 532 536 
540 544 548 552 556 560 564 568 572 
576 580 584 588 592 596 600 604 608 
612 616 620 624 628 632 636 640 644 
648 652 656 660 664 668 672 676 680 
684 688 692 696 700 704 708 712 716 
720 724 728 732 736 740 744 748 752 
756 760 764 768 772 776 780 784 788 
792 796 800 804 808 812 816 820 824 
828 832 836 840 844 848 852 856 860 
864 868 872 876 880 884 888 892 896 
900 904 908 912 916 920 924 928 932 
936 940 944 948 952 956 960 964 968 
972 976 980 984 988 992 996 1000 1004 
1008 1012 1016 1020 1024 1028 1032 1036 1040 
1044 1048 1052 1056 1060 1064 1068 1072 1076 
1080 1084 1088 1092 1096 1100 1104 1108 1112 
1116 1120 1124 1128 1132 1136 1140 1144 1148 
1152 1156 1160 1164 1168 1172 1176 1180 1184 
1188 1192 1196 1200 1204 1208 1212 1216 1220 
1224 1228 1232 1236 1240 1244 1248 1252 1256 
1260 1264 1268 1272 1276 1280 1284 1288 1292 
1296 1300 1304 1308 1312 1316 1320 1324 1328 
1332 1336 1340 1344 1348 1352 1356 1360 1364 
1368 1372 1376 1380 1384 1388 1392 1396 1400 
1404 1408 1412 1416 1420 1424 1428 1432 1436 
1440 1444 1448 1452 1456 1460 1464 1468 1472 
1476 1480 1484 1488 1492 1496 1500 1504 1508 
1512 1516 1520 1524 1528 1532 1536 1540 1544 
1548 1552 1556 1560 1564 1568 1572 1576 1580 
1584 1588 1592 1596 1600 1604 1608 1612 1616 
1620 1624 1628 1632 1636 1640 1644 1648 1652 
1656 1660 1664 1668 1672 1676 1680 1684 1688 
1692 1696 1700 1704 1708 1712 1716 1720 1724 
1728 1732 1736 1740 1744 1748 1752 1756 1760 
1764 1768 1772 1776 1780 1784 1788 1792 1796 
1800 1804 1808 1812 1816 1820 1824 1828 1832 
1836 1840 1844 1848 1852 1856 1860 1864 1868 
1872 1876 1880 1884 1888 1892 1896 1900 1904 
1908 1912 1916 1920 1924 1928 1932 1936 1940 
1944 1948 1952 1956 1960 1964 1968 1972 1976 
1980 1984 1988 1992 1996 2000 2004 2008 2012 
2016 2020 2024 2028 2032 2036 2040 2044 2048 
2052 2056 2060 2064 2068 2072 2076 2080 2084 
2088 2092 2096 2100 2104 2108 2112 2116 2120 
2124 2128 2132 2136 2140 2144 2148 2152 2156 
2160 2164 2168 2172 2176 2180 2184 2188 2192 
2196 2200 2204 2208 2212 2216 2220 2224 2228 
2232 2236 2240 2244 2248 2252 2256 2260 2264 
2268 2272 2276 2280 2284 2288 2292 2296 2300 
2304 2308 2312 2316 2320 2324 2328 2332 2336 
2340 2344 2348 2352 2356 2360 2364 2368 2372 
2376 2380 2384 2388 2392 2396 2400 2404 2408 
2412 2416 2420 2424 2428 2432 2436 2440 2444 
2448 2452 2456 2460 2464 2468 2472 2476 2480 
2484 2488 2492 2496 2500 2504 2508 2512 2516 
2520 2524 2528 2532 2536 2540 2544 2548 2552 
2556 2560 2564 2568 2572 2576 2580 2584 2588 
2592 2596 2600 2604 2608 2612 2616 2620 2624 
2628 2632 2636 2640 2644 2648 2652 2656 2660 
2664 2668 2672 2676 2680 2684 2688 2692 2696 
2700 2704 2708 2712 2716 2720 2724 2728 2732 
2736 2740 2744 2748 2752 2756 2760 2764 2768 
2772 2776 2780 2784 2788 2792 2796 2800 2804 
2808 2812 2816 2820 2824 2828 2832 2836 2840 
2844 2848 2852 2856 2860 2864 2868 2872 2876 
2880 2884 2888 2892 2896 2900 2904 2908 2912 
2916 2920 2924 2928 2932 2936 2940 2944 2948 
2952 2956 2960 2964 2968 2972 2976 2980 2984 
2988 2992 2996 3000 3004 3008 3012 3016 3020 
3024 3028 3032 3036 3040 3044 3048 3052 3056 
3060 3064 3068 3072 3076 3080 3084 3088 3092 
3096 3100 3104 3108 3112 3116 3120 3124 3128 
3132 3136 3140 3144 3148 3152 3156 3160 3164 
3168 3172 3176 3180 3184 3188 3192 3196 3200 
3204 3208 3212 3216 3220 3224 3228 3232 3236 
3240 3244 3248 3252 3256 3260 3264 3268 3272 
3276 3280 3284 3288 3292 3296 3300 3304 3308 
3312 3316 3320 3324 3328 3332 3336 3340 3344 
3348 3352 3356 3360 3364 3368 3372 3376 3380 
3384 3388 3392 3396 3400 3404 3408 3412 3416 
3420 3424 3428 3432 3436 3440 3444 3448 3452 
3456 3460 3464 3468 3472 3476 3480 3484 3488 
3492 3496 3500 3504 3508 3512 3516 3520 3524 
3528 3532 3536 3540 3544 3548 3552 3556 3560 
3564 3568 3572 3576 3580 3584 3588 3592 3596 
3600 3604 3608 3612 3616 3620 3624 3628 3632 
3636 3640 3644 3648 3652 3656 3660 3664 3668 
3672 3676 3680 3684 3688 3692 3696 3700 3704 
3708 3712 3716 3720 3724 3728 3732 3736 3740 
3744 3748 3752 3756 3760 3764 3768 3772 3776 
3780 3784 3788 3792 3796 3800 3804 3808 3812 
3816 3820 3824 3828 3832 3836 3840 3844 3848 
3852 3856 3860 3864 3868 3872 3876 3880 3884 
3888 3892 3896 3900 3904 3908 3912 3916 3920 
3924 3928 3932 3936 3940 3944 3948 3952 3956 
3960 3964 3968 3972 3976 3980 3984 3988 3992 
3996 4000 4004 4008 4012 4016 4020 4024 4028 
4032 4036 4040 4044 4048 4052 4056 4060 4064 
4068 4072 4076 4080 4084 4088 4092 4096 4100 
4104 4108 4112 4116 4120 4124 4128 4132 4136 
4140 4144 4148 4152 4156 4160 4164 4168 4172 
4176 4180 4184 4188 4192 4196 4200 4204 4208 
4212 4216 4220 4224 4228 4232 4236 4240 4244 
4248 4252 4256 4260 4264 4268 4272 4276 4280 
4284 4288 4292 4296 4300 4304 4308 4312 4316 
4320 4324 4328 4332 4336 4340 4344 4348 4352 
4356 4360 4364 4368 4372 4376 4380 4384 4388 
4392 4396 4400 4404 4408 4412 4416 4420 4424 
4428 4432 4436 4440 4444 4448 4452 4456 4460 
4464 4468 4472 4476 4480 4484 4488 4492 4496 
4500 4504 4508 4512 4516 4520 4524 4528 4532 
4536 4540 4544 4548 4552 4556 4560 4564 4568 
4572 4576 4580 4584 4588 4592 4596 4600 4604 
4608 4612 4616 4620 4624 4628 4632 4636 4640 
4644 4648 4652 4656 4660 4664 4668 4672 4676 
4680 4684 4688 4692 4696 4700 4704 4708 4712 
4716 4720 4724 4728 4732 4736 4740 4744 4748 
4752 4756 4760 4764 4768 4772 4776 4780 4784 
4788 4792 4796 4800 4804 4808 4812 4816 4820 
4824 4828 4832 4836 4840 4844 4848 4852 4856 
4860 4864 4868 4872 4876 4880 4884 4888 4892 
4896 4900 4904 4908 4912 4916 4920 4924 4928 
4932 4936 4940 4944 4948 4952 4956 4960 4964 
4968 4972 4976 4980 4984 4988 4992 4996 5000 
5004 5008 5012 5016 5020 5024 5028 5032 5036 
5040 5044 5048 5052 5056 5060 5064 5068 5072 
5076 5080 5084 5088 5092 5096 5100 5104 5108 
5112 5116 5120 5124 5128 5132 5136 5140 5144 
5148 5152 5156 5160 5164 5168 5172 5176 5180 
5184 5188 5192 5196 5200 5204 5208 5212 5216 
5220 5224 5228 5232 5236 5240 5244 5248 5252 
5256 5260 5264 5268 5272 5276 5280 5284 5288 
5292 5296 5300 5304 5308 5312 5316 5320 5324 
5328 5332 5336 5340 5344 5348 5352 5356 5360 
5364 5368 5372 5376 5380 5384 5388 5392 5396 
5400 5404 5408 5412 5416 5420 5424 5428 5432 
5436 5440 5444 5448 5452 5456 5460 5464 5468 
5472 5476 5480 5484 5488 5492 5496 5500 5504 
5508 5512 5516 5520 5524 5528 5532 5536 5540 
5544 5548 5552 5556 5560 5564 5568 5572 5576 
5580 5584 5588 5592 5596 5600 5604 5608 5612 
5616 5620 5624 5628 5632 5636 5640 5644 5648 
5652 5656 5660 5664 5668 5672 5676 5680 5684 
5688 5692 5696 5700 5704 5708 5712 5716 5720 
5724 5728 5732 5736 5740 5744 5748 5752 5756 
5760 5764 5768 5772 5776 5780 5784 5788 5792 
5796 5800 5804 5808 5812 5816 5820 5824 5828 
5832 5836 5840 5844 5848 5852 5856 5860 5864 
5868 5872 5876 5880 5884 5888 5892 5896 5900 
5904 5908 5912 5916 5920 5924 5928 5932 5936 
5940 5944 5948 5952 5956 5960 5964 5968 5972 
5976 5980 5984 5988 5992 5996 6000 6004 6008 
6012 6016 6020 6024 6028 6032 6036 6040 6044 
6048 6052 6056 6060 6064 6068 6072 6076 6080 
6084 6088 6092 6096 6100 6104 6108 6112 6116 
6120 6124 6128 6132 6136 6140 6144 6148 6152 
6156 6160 6164 6168 6172 6176 6180 6184 6188 
6192 6196 6200 6204 6208 6212 6216 6220 6224 
6228 6232 6236 6240 6244 6248 6252 6256 6260 
6264 6268 6272 6276 6280 6284 6288 6292 6296 
6300 6304 6308 6312 6316 6320 6324 6328 6332 
6336 6340 6344 6348 6352 6356 6360 6364 6368 
6372 6376 6380 6384 6388 6392 6396 6400 6404 
6408 6412 6416 6420 6424 6428 6432 6436 6440 
6444 6448 6452 6456 6460 6464 6468 6472 6476 
6480 6484 6488 6492 6496 6500 6504 6508 6512 
6516 6520 6524 6528 6532 6536 6540 6544 6548 
6552 6556 6560 6564 6568 6572 6576 6580 6584 
6588 6592 6596 6600 6604 6608 6612 6616 6620 
6624 6628 6632 6636 6640 6644 6648 6652 6656 
6660 6664 6668 6672 6676 6680 6684 6688 6692 
6696 6700 6704 6708 6712 6716 6720 6724 6728 
6732 6736 6740 6744 6748 6752 6756 6760 6764 
6768 6772 6776 6780 6784 6788 6792 6796 6800 
6804 6808 6812 6816 6820 6824 6828 6832 6836 
6840 6844 6848 6852 6856 6860 6864 6868 6872 
6876 6880 6884 6888 6892 6896 6900 6904 6908 
6912 6916 6920 6924 6928 6932 6936 6940 6944 
6948 6952 6956 6960 6964 6968 6972 6976 6980 
6984 6988 6992 6996 7000 7004 7008 7012 7016 
7020 7024 7028 7032 7036 7040 7044 7048 7052 
7056 7060 7064 7068 7072 7076 7080 7084 7088 
7092 7096 7100 7104 7108 7112 7116 7120 7124 
7128 7132 7136 7140 7144 7148 7152 7156 7160 
7164 7168 7172 7176 7180 7184 7188 7192 7196 
7200 7204 7208 7212 7216 7220 7224 7228 7232 
7236 7240 7244 7248 7252 7256 7260 7264 7268 
7272 7276 7280 7284 7288 7292 7296 7300 7304 
7308 7312 7316 7320 7324 7328 7332 7336 7340 
7344 7348 7352 7356 7360 7364 7368 7372 7376 
7380 7384 7388 7392 7396 7400 7404 7408 7412 
7416 7420 7424 7428 7432 7436 7440 7444 7448 
7452 7456 7460 7464 7468 7472 7476 7480 7484 
7488 7492 7496 7500 7504 7508 7512 7516 7520 
7524 7528 7532 7536 7540 7544 7548 7552 7556 
7560 7564 7568 7572 7576 7580 7584 7588 7592 
7596 7600 7604 7608 7612 7616 7620 7624 7628 
7632 7636 7640 7644 7648 7652 7656 7660 7664 
7668 7672 7676 7680 7684 7688 7692 7696 7700 
7704 7708 7712 7716 7720 7724 7728 7732 7736 
7740 7744 7748 7752 7756 7760 7764 7768 7772 
7776 7780 7784 7788 7792 7796 7800 7804 7808 
7812 7816 7820 7824 7828 7832 7836 7840 7844 
7848 7852 7856 7860 7864 7868 7872 7876 7880 
7884 7888 7892 7896 7900 7904 7908 7912 7916 
7920 7924 7928 7932 7936 7940 7944 7948 7952 
7956 7960 7964 7968 7972 7976 7980 7984 7988 
7992 7996 8000 8004 8008 8012 8016 8020 8024 
8028 8032 8036 8040 8044 8048 8052 8056 8060 
8064 8068 8072 8076 8080 8084 8088 8092 8096 
8100 8104 8108 8112 8116 8120 8124 8128 8132 
8136 8140 8144 8148 8152 8156 8160 8164 8168 
8172 8176 8180 8184 8188 8192 8196 8200 8204 
8208 8212 8216 8220 8224 8228 8232 8236 8240 
8244 8248 8252 8256 8260 8264 8268 8272 8276 
8280 8284 8288 8292 8296 8300 8304 8308 8312 
8316 8320 8324 8328 8332 8336 8340 8344 8348 
8352 8356 8360 8364 8368 8372 8376 8380 8384 
8388 8392 8396 8400 8404 8408 8412 8416 8420 
8424 8428 8432 8436 8440 8444 8448 8452 8456 
8460 8464 8468 8472 8476 8480 8484 8488 8492 
8496 8500 8504 8508 8512 8516 8520 8524 8528 
8532 8536 8540 8544 8548 8552 8556 8560 8564 
8568 8572 8576 8580 8584 8588 8592 8596 8600 
8604 8608 8612 8616 8620 8624 8628 8632 8636 
8640 8644 8648 8652 8656 8660 8664 8668 8672 
8676 8680 8684 8688 8692 8696 8700 8704 8708 
8712 8716 8720 8724 8728 8732 8736 8740 8744 
8748 8752 8756 8760 8764 8768 8772 8776 8780 
8784 8788 8792 8796 8800 8804 8808 8812 8816 
8820 8824 8828 8832 8836 8840 8844 8848 8852 
8856 8860 8864 8868 8872 8876 8880 8884 8888 
8892 8896 8900 8904 8908 8912 8916 8920 8924 
8928 8932 8936 8940 8944 8948 8952 8956 8960 
8964 8968 8972 8976 8980 8984 8988 8992 8996 
9000 9004 9008 9012 9016 9020 9024 9028 9032 
9036 9040 9044 9048 9052 9056 9060 9064 9068 
9072 9076 9080 9084 9088 9092 9096 9100 9104 
9108 9112 9116 9120 9124 9128 9132 9136 9140 
9144 9148 9152 9156 9160 9164 9168 9172 9176 
9180 9184 9188 9192 9196 9200 9204 9208 9212 
9216 9220 9224 9228 9232 9236 9240 9244 9248 
9252 9256 9260 9264 9268 9272 9276 9280 9284 
9288 9292 9296 9300 9304 9308 9312 9316 9320 
9324 9328 9332 9336 9340 9344 9348 9352 9356 
9360 9364 9368 9372 9376 9380 9384 9388 9392 
9396 9400 9404 9408 9412 9416 9420 9424 9428 
9432 9436 9440 9444 9448 9452 9456 9460 9464 
9468 9472 9476 9480 9484 9488 9492 9496 9500 
9504 9508 9512 9516 9520 9524 9528 9532 9536 
9540 9544 9548 9552 9556 9560 9564 9568 9572 
9576 9580 9584 9588 9592 9596 9600 9604 9608 
9612 9616 9620 9624 9628 9632 9636 9640 9644 
9648 9652 9656 9660 9664 9668 9672 9676 9680 
9684 9688 9692 9696 9700 9704 9708 9712 9716 
9720 9724 9728 9732 9736 9740 9744 9748 9752 
9756 9760 9764 9768 9772 9776 9780 9784 9788 
9792 9796 9800 9804 9808 9812 9816 9820 9824 
9828 9832 9836 9840 9844 9848 9852 9856 9860 
9864 9868 9872 9876 9880 9884 9888 9892 9896 
9900 9904 9908 9912 9916 9920 9924 9928 9932 
9936 9940 9944 9948 9952 9956 9960 9964 9968 
9972 9976 9980 9984 9988 9992 9996 10000 10004 
10008 10012 10016 10020 10024 10028 10032 10036 10040 
10044 10048 10052 10056 10060 10064 10068 10072 10076 
10080 10084 10088 10092 10096 10100 10104 10108 10112 
10116 10120 10124 10128 10132 10136 10140 10144 10148 
10152 10156 10160 10164 10168 10172 10176 10180 10184 
10188 10192 10196 10200 10204 10208 10212 10216 10220 
10224 10228 10232 10236 10240 10244 10248 10252 10256 
10260 10264 10268 10272 10276 10280 10284 10288 10292 
10296 10300 10304 10308 10312 10316 10320 10324 10328 
10332 10336 10340 10344 10348 10352 10356 10360 10364 
10368 10372 10376 10380 10384 10388 10392 10396 10400 
10404 10408 10412 10416 10420 10424 10428 10432 10436 
10440 10444 10448 10452 10456 10460 10464 10468 10472 
10476 10480 10484 10488 10492 10496 10500 10504 10508 
10512 10516 10520 10524 10528 10532 10536 10540 10544 
10548 10552 10556 10560 10564 10568 10572 10576 10580 
10584 10588 10592 10596 10600 10604 10608 10612 10616 
10620 10624 10628 10632 10636 10640 10644 10648 10652 
10656 10660 10664 10668 10672 10676 10680 10684 10688 
10692 10696 10700 10704 10708 10712 10716 10720 10724 
10728 10732 10736 10740 10744 10748 10752 10756 10760 
10764 10768 10772 10776 10780 10784 10788 10792 10796 
10800 10804 10808 10812 10816 10820 10824 10828 10832 
10836 10840 10844 10848 10852 10856 10860 10864 10868 
10872 10876 10880 10884 10888 10892 10896 10900 10904 
10908 10912 10916 10920 10924 10928 10932 10936 10940 
10944 10948 10952 10956 10960 10964 10968 10972 10976 
10980 10984 10988 10992 10996 11000 11004 11008 11012 
11016 11020 11024 11028 11032 11036 11040 11044 11048 
11052 11056 11060 11064 11068 11072 11076 11080 11084 
11088 11092 11096 11100 11104 11108 11112 11116 11120 
11124 11128 11132 11136 11140 11144 11148 11152 11156 
11160 11164 11168 11172 11176 11180 11184 11188 11192 
11196 11200 11204 11208 11212 11216 11220 11224 11228 
11232 11236 11240 11244 11248 11252 11256 11260 11264 
11268 11272 11276 11280 11284 11288 11292 11296 11300 
11304 11308 11312 11316 11320 11324 11328 11332 11336 
11340 11344 11348 11352 11356 11360 11364 11368 11372 
11376 11380 11384 11388 11392 11396 11400 11404 11408 
11412 11416 11420 11424 11428 11432 11436 11440 11444 
11448 11452 11456 11460 11464 11468 11472 11476 11480 
11484 11488 11492 11496 11500 11504 11508 11512 11516 
11520 11524 11528 11532 11536 11540 11544 11548 11552 
11556 11560 11564 11568 11572 11576 11580 11584 11588 
11592 11596 11600 11604 11608 11612 11616 11620 11624 
11628 11632 11636 11640 11644 11648 11652 11656 11660 
11664 11668 11672 11676 11680 11684 11688 11692 11696 
11700 11704 11708 11712 11716 11720 11724 11728 11732 
11736 11740 11744 11748 11752 11756 11760 11764 11768 
11772 11776 11780 11784 11788 11792 11796 11800 11804 
11808 11812 11816 11820 11824 11828 11832 11836 11840 
11844 11848 11852 11856 11860 11864 11868 11872 11876 
11880 11884 11888 11892 11896 11900 11904 11908 11912 
11916 11920 11924 11928 11932 11936 11940 11944 11948 
11952 11956 11960 11964 11968 11972 11976 11980 11984 
11988 11992 11996 12000 12004 12008 12012 12016 12020 
12024 12028 12032 12036 12040 12044 12048 12052 12056 
12060 12064 12068 12072 12076 12080 12084 12088 12092 
12096 12100 12104 12108 12112 12116 12120 12124 12128 
12132 12136 12140 12144 12148 12152 12156 12160 12164 
12168 12172 12176 12180 12184 12188 12192 12196 12200 
12204 12208 12212 12216 12220 12224 12228 12232 12236 
12240 12244 12248 12252 12256 12260 12264 12268 12272 
12276 12280 12284 12288 12292 12296 12300 12304 12308 
12312 12316 12320 12324 12328 12332 12336 12340 12344 
12348 12352 12356 12360 12364 12368 12372 12376 12380 
12384 12388 12392 12396 12400 12404 12408 12412 12416 
12420 12424 12428 12432 12436 12440 12444 12448 12452 
12456 12460 12464 12468 12472 12476 12480 12484 12488 
12492 12496 12500 12504 12508 12512 12516 12520 12524 
12528 12532 12536 12540 12544 12548 12552 12556 12560 
12564 12568 12572 12576 12580 12584 12588 12592 12596 
12600 12604 12608 12612 12616 12620 12624 12628 12632 
12636 12640 12644 12648 12652 12656 12660 12664 12668 
12672 12676 12680 12684 12688 12692 12696 12700 12704 
12708 12712 12716 12720 12724 12728 12732 12736 12740 
12744 12748 12752 12756 12760 12764 12768 12772 12776 
12780 12784 12788 12792 12796 12800 12804 12808 12812 
12816 12820 12824 12828 12832 12836 12840 12844 12848 
12852 12856 12860 12864 12868 12872 12876 12880 12884 
12888 12892 12896 12900 12904 12908 12912 12916 12920 
12924 12928 12932 12936 12940 12944 12948 12952 12956 
12960 12964 12968 12972 12976 12980 12984 12988 12992 
12996 13000 13004 13008 13012 13016 13020 13024 13028 
13032 13036 13040 13044 13048 13052 13056 13060 13064 
13068 13072 13076 13080 13084 13088 13092 13096 13100 
13104 13108 13112 13116 13120 13124 13128 13132 13136 
13140 13144 13148 13152 13156 13160 13164 13168 13172 
13176 13180 13184 13188 13192 13196 13200 13204 13208 
13212 13216 13220 13224 13228 13232 13236 13240 13244 
13248 13252 13256 13260 13264 13268 13272 13276 13280 
13284 13288 13292 13296 13300 13304 13308 13312 13316 
13320 13324 13328 13332 13336 13340 13344 13348 13352 
13356 13360 13364 13368 13372 13376 13380 13384 13388 
13392 13396 13400 13404 13408 13412 13416 13420 13424 
13428 13432 13436 13440 13444 13448 13452 13456 13460 
13464 13468 13472 13476 13480 13484 13488 13492 13496 
13500 13504 13508 13512 13516 13520 13524 13528 13532 
13536 13540 13544 13548 13552 13556 13560 13564 13568 
13572 13576 13580 13584 13588 13592 13596 13600 13604 
13608 13612 13616 13620 13624 13628 13632 13636 13640 
13644 13648 13652 13656 13660 13664 13668 13672 13676 
13680 13684 13688 13692 13696 13700 13704 13708 13712 
13716 13720 13724 13728 13732 13736 13740 13744 13748 
13752 13756 13760 13764 13768 13772 13776 13780 13784 
13788 13792 13796 13800 13804 13808 13812 13816 13820 
13824 13828 13832 13836 13840 13844 13848 13852 13856 
13860 13864 13868 13872 13876 13880 13884 13888 13892 
13896 13900 13904 13908 13912 13916 13920 13924 13928 
13932 13936 13940 13944 13948 13952 13956 13960 13964 
13968 13972 13976 13980 13984 13988 13992 13996 14000 
14004 14008 14012 14016 14020 14024 14028 14032 14036 
14040 14044 14048 14052 14056 14060 14064 14068 14072 
14076 14080 14084 14088 14092 14096 14100 14104 14108 
14112 14116 14120 14124 14128 14132 14136 14140 14144 
14148 14152 14156 14160 14164 14168 14172 14176 14180 
14184 14188 14192 14196 14200 14204 14208 14212 14216 
14220 14224 14228 14232 14236 14240 14244 14248 14252 
14256 14260 14264 14268 14272 14276 14280 14284 14288 
14292 14296 14300 14304 14308 14312 14316 14320 14324 
14328 14332 14336 14340 14344 14348 14352 14356 14360 
14364 14368 14372 14376 14380 14384 14388 14392 14396 
14400 14404 14408 14412 14416 14420 14424 14428 14432 
14436 14440 14444 14448 14452 14456 14460 14464 14468 
14472 14476 14480 14484 14488 14492 14496 14500 14504 
14508 14512 14516 14520 14524 14528 14532 14536 14540 
14544 14548 14552 14556 14560 14564 14568 14572 14576 
14580 14584 14588 14592 14596 14600 14604 14608 14612 
14616 14620 14624 14628 14632 14636 14640 14644 14648 
14652 14656 14660 14664 14668 14672 14676 14680 14684 
14688 14692 14696 14700 14704 14708 14712 14716 14720 
14724 14728 14732 14736 14740 14744 14748 14752 14756 
14760 14764 14768 14772 14776 14780 14784 14788 14792 
14796 14800 14804 14808 14812 14816 14820 14824 14828 
14832 14836 14840 14844 14848 14852 14856 14860 14864 
14868 14872 14876 14880 14884 14888 14892 14896 14900 
14904 14908 14912 14916 14920 14924 14928 14932 14936 
14940 14944 14948 14952 14956 14960 14964 14968 14972 
14976 14980 14984 14988 14992 14996 15000 15004 15008 
15012 15016 15020 15024 15028 15032 15036 15040 15044 
15048 15052 15056 15060 15064 15068 15072 15076 15080 
15084 15088 15092 15096 15100 15104 15108 15112 15116 
15120 15124 15128 15132 15136 15140 15144 15148 15152 
15156 15160 15164 15168 15172 15176 15180 15184 15188 
15192 15196 15200 15204 15208 15212 15216 15220 15224 
15228 15232 15236 15240 15244 15248 15252 15256 15260 
15264 15268 15272 15276 15280 15284 15288 15292 15296 
15300 15304 15308 15312 15316 15320 15324 15328 15332 
15336 15340 15344 15348 15352 15356 15360 15364 15368 
15372 15376 15380 15384 15388 15392 15396 15400 15404 
15408 15412 15416 15420 15424 15428 15432 15436 15440 
15444 15448 15452 15456 15460 15464 15468 15472 15476 
15480 15484 15488 15492 15496 15500 15504 15508 15512 
15516 15520 15524 15528 15532 15536 15540 15544 15548 
15552 15556 15560 15564 15568 15572 15576 15580 15584 
15588 15592 15596 15600 15604 15608 15612 15616 15620 
15624 15628 15632 15636 15640 15644 15648 15652 15656 
15660 15664 15668 15672 15676 15680 15684 15688 15692 
15696 15700 15704 15708 15712 15716 15720 15724 15728 
15732 15736 15740 15744 15748 15752 15756 15760 15764 
15768 15772 15776 15780 15784 15788 15792 15796 15800 
15804 15808 15812 15816 15820 15824 15828 15832 15836 
15840 15844 15848 15852 15856 15860 15864 15868 15872 
15876 15880 15884 15888 15892 15896 15900 15904 15908 
15912 15916 15920 15924 15928 15932 15936 15940 15944 
15948 15952 15956 15960 15964 15968 15972 15976 15980 
15984 15988 15992 15996 16000 16004 16008 16012 16016 
16020 16024 16028 16032 16036 16040 16044 16048 16052 
16056 16060 16064 16068 16072 16076 16080 16084 16088 
16092 16096 16100 16104 16108 16112 16116 16120 16124 
16128 16132 16136 16140 16144 16148 16152 16156 16160 
16164 16168 16172 16176 16180 16184 16188 16192 16196 
16200 16204 16208 16212 16216 16220 16224 16228 16232 
16236 16240 16244 16248 16252 16256 16260 16264 16268 
16272 16276 16280 16284 16288 16292 16296 16300 16304 
16308 16312 16316 16320 16324 16328 16332 16336 16340 
16344 16348 16352 16356 16360 16364 16368 16372 16376 
16380 16384 16388 16392 16396 16400 16404 16408 16412 
16416 16420 16424 16428 16432 16436 16440 16444 16448 
16452 16456 16460 16464 16468 16472 16476 16480 16484 
16488 16492 16496 16500 16504 16508 16512 16516 16520 
16524 16528 16532 16536 16540 16544 16548 16552 16556 
16560 16564 16568 16572 16576 16580 16584 16588 16592 
16596 16600 16604 16608 16612 16616 16620 16624 16628 
16632 16636 16640 16644 16648 16652 16656 16660 16664 
16668 16672 16676 16680 16684 16688 16692 16696 16700 
16704 16708 16712 16716 16720 16724 16728 16732 16736 
16740 16744 16748 16752 16756 16760 16764 16768 16772 
16776 16780 16784 16788 16792 16796 16800 16804 16808 
16812 16816 16820 16824 16828 16832 16836 16840 16844 
16848 16852 16856 16860 16864 16868 16872 16876 16880 
16884 16888 16892 16896 16900 16904 16908 16912 16916 
16920 16924 16928 16932 16936 16940 16944 16948 16952 
16956 16960 16964 16968 16972 16976 16980 16984 16988 
16992 16996 17000 17004 17008 17012 17016 17020 17024 
17028 17032 17036 17040 17044 17048 17052 17056 17060 
17064 17068 17072 17076 17080 17084 17088 17092 17096 
17100 17104 17108 17112 17116 17120 17124 17128 17132 
17136 17140 17144 17148 17152 17156 17160 17164 17168 
17172 17176 17180 17184 17188 17192 17196 17200 17204 
17208 17212 17216 17220 17224 17228 17232 17236 17240 
17244 17248 17252 17256 17260 17264 17268 17272 17276 
17280 17284 17288 17292 17296 17300 17304 17308 17312 
17316 17320 17324 17328 17332 17336 17340 17344 17348 
17352 17356 17360 17364 17368 17372 17376 17380 17384 
17388 17392 17396 17400 17404 17408 17412 17416 17420 
17424 17428 17432 17436 17440 17444 17448 17452 17456 
17460 17464 17468 17472 17476 17480 17484 17488 17492 
17496 17500 17504 17508 17512 17516 17520 17524 17528 
17532 17536 17540 17544 17548 17552 17556 17560 17564 
17568 17572 17576 17580 17584 17588 17592 17596 17600 
17604 17608 17612 17616 17620 17624 17628 17632 17636 
17640 17644 17648 17652 17656 17660 17664 17668 17672 
17676 17680 17684 17688 17692 17696 17700 17704 17708 
17712 17716 17720 17724 17728 17732 17736 17740 17744 
17748 17752 17756 17760 17764 17768 17772 17776 17780 
17784 17788 17792 17796 17800 17804 17808 17812 17816 
17820 17824 17828 17832 17836 17840 17844 17848 17852 
17856 17860 17864 17868 17872 17876 17880 17884 17888 
17892 17896 17900 17904 17908 17912 17916 17920 17924 
17928 17932 17936 17940 17944 17948 17952 17956 17960 
17964 17968 17972 17976 17980 17984 17988 17992 17996 
18000 18004 18008 18012 18016 18020 18024 18028 18032 
18036 18040 18044 18048 18052 18056 18060 18064 18068 
18072 18076 18080 18084 18088 18092 18096 18100 18104 
18108 18112 18116 18120 18124 18128 18132 18136 18140 
18144 18148 18152 18156 18160 18164 18168 18172 18176 
18180 18184 18188 18192 18196 18200 18204 18208 18212 
18216 18220 18224 18228 18232 18236 18240 18244 18248 
18252 18256 18260 18264 18268 18272 18276 18280 18284 
18288 18292 18296 18300 18304 18308 18312 18316 18320 
18324 18328 18332 18336 18340 18344 18348 18352 18356 
18360 18364 18368 18372 18376 18380 18384 18388 18392 
18396 18400 18404 18408 18412 18416 18420 18424 18428 
18432 18436 18440 18444 18448 18452 18456 18460 18464 
18468 18472 18476 18480 18484 18488 18492 18496 18500 
18504 18508 18512 18516 18520 18524 18528 18532 18536 
18540 18544 18548 18552 18556 18560 18564 18568 18572 
18576 18580 18584 18588 18592 18596 18600 18604 18608 
18612 18616 18620 18624 18628 18632 18636 18640 18644 
18648 18652 18656 18660 18664 18668 18672 18676 18680 
18684 18688 18692 18696 18700 18704 18708 18712 18716 
18720 18724 18728 18732 18736 18740 18744 18748 18752 
18756 18760 18764 18768 18772 18776 18780 18784 18788 
18792 18796 18800 18804 18808 18812 18816 18820 18824 
18828 18832 18836 18840 18844 18848 18852 18856 18860 
18864 18868 18872 18876 18880 18884 18888 18892 18896 
18900 18904 18908 18912 18916 18920 18924 18928 18932 
18936 18940 18944 18948 18952 18956 18960 18964 18968 
18972 18976 18980 18984 18988 18992 18996 19000 19004 
19008 19012 19016 19020 19024 19028 19032 19036 19040 
19044 19048 19052 19056 19060 19064 19068 19072 19076 
19080 19084 19088 19092 19096 19100 19104 19108 19112 
19116 19120 19124 19128 19132 19136 19140 19144 19148 
19152 19156 19160 19164 19168 19172 19176 19180 19184 
19188 19192 19196 19200 19204 19208 19212 19216 19220 
19224 19228 19232 19236 19240 19244 19248 19252 19256 
19260 19264 19268 19272 19276 19280 19284 19288 19292 
19296 19300 19304 19308 19312 19316 19320 19324 19328 
19332 19336 19340 19344 19348 19352 19356 19360 19364 
19368 19372 19376 19380 19384 19388 19392 19396 19400 
19404 19408 19412 19416 19420 19424 19428 19432 19436 
19440 19444 19448 19452 19456 19460 19464 19468 19472 
19476 19480 19484 19488 19492 19496 19500 19504 19508 
19512 19516 19520 19524 19528 19532 19536 19540 19544 
19548 19552 19556 19560 19564 19568 19572 19576 19580 
19584 19588 19592 19596 19600 19604 19608 19612 19616 
19620 19624 19628 19632 19636 19640 19644 19648 19652 
19656 19660 19664 19668 19672 19676 19680 19684 19688 
19692 19696 19700 19704 19708 19712 19716 19720 19724 
19728 19732 19736 19740 19744 19748 19752 19756 19760 
19764 19768 19772 19776 19780 19784 19788 19792 19796 
19800 19804 19808 19812 19816 19820 19824 19828 19832 
19836 19840 19844 19848 19852 19856 19860 19864 19868 
19872 19876 19880 19884 19888 19892 19896 19900 19904 
19908 19912 19916 19920 19924 19928 19932 19936 19940 
19944 19948 19952 19956 19960 19964 19968 19972 19976 
19980 19984 19988 19992 19996 20000 20004 20008 20012 
20016 20020 20024 20028 20032 20036 20040 20044 20048 
20052 20056 20060 20064 20068 20072 20076 20080 20084 
20088 20092 20096 20100 20104 20108 20112 20116 20120 
20124 20128 20132 20136 20140 20144 20148 20152 20156 
20160 20164 20168 20172 20176 20180 20184 20188 20192 
20196 20200 20204 20208 20212 20216 20220 20224 20228 
20232 20236 20240 20244 20248 20252 20256 20260 20264 
20268 20272 20276 20280 20284 20288 20292 20296 20300 
20304 20308 20312 20316 20320 20324 20328 20332 20336 
20340 20344 20348 20352 20356 20360 20364 20368 20372 
20376 20380 20384 20388 20392 20396 20400 20404 20408 
20412 20416 20420 20424 20428 20432 20436 20440 20444 
20448 20452 20456 20460 20464 20468 20472 20476 20480 
20484 20488 20492 20496 20500 20504 20508 20512 20516 
20520 20524 20528 20532 20536 20540 20544 20548 20552 
20556 20560 20564 20568 20572 20576 20580 20584 20588 
20592 20596 20600 20604 20608 20612 20616 20620 20624 
20628 20632 20636 20640 20644 20648 20652 20656 20660 
20664 20668 20672 20676 20680 20684 20688 20692 20696 
20700 20704 20708 20712 20716 20720 20724 20728 20732 
20736 20740 20744 20748 20752 20756 20760 20764 20768 
20772 20776 20780 20784 20788 20792 20796 20800 20804 
20808 20812 20816 20820 20824 20828 20832 20836 20840 
20844 20848 20852 20856 20860 20864 20868 20872 20876 
20880 20884 20888 20892 20896 20900 20904 20908 20912 
20916 20920 20924 20928 20932 20936 20940 20944 20948 
20952 20956 20960 20964 20968 20972 20976 20980 20984 
20988 20992 20996 21000 21004 21008 21012 21016 21020 
21024 21028 21032 21036 21040 21044 21048 21052 21056 
21060 21064 21068 21072 21076 21080 21084 21088 21092 
21096 21100 21104 21108 21112 21116 21120 21124 21128 
21132 21136 21140 21144 21148 21152 21156 21160 21164 
21168 21172 21176 21180 21184 21188 21192 21196 21200 
21204 21208 21212 21216 21220 21224 21228 21232 21236 
21240 21244 21248 21252 21256 21260 21264 21268 21272 
21276 21280 21284 21288 21292 21296 21300 21304 21308 
21312 21316 21320 21324 21328 21332 21336 21340 21344 
21348 21352 21356 21360 21364 21368 21372 21376 21380 
21384 21388 21392 21396 21400 21404 21408 21412 21416 
21420 21424 21428 21432 21436 21440 21444 21448 21452 
21456 21460 21464 21468 21472 21476 21480 21484 21488 
21492 21496 21500 21504 21508 21512 21516 21520 21524 
21528 21532 21536 21540 21544 21548 21552 21556 21560 
21564 21568 21572 21576 21580 21584 21588 21592 21596 
21600 21604 21608 21612 21616 21620 21624 21628 21632 
21636 21640 21644 21648 21652 21656 21660 21664 21668 
21672 21676 21680 21684 21688 21692 21696 21700 21704 
21708 21712 21716 21720 21724 21728 21732 21736 21740 
21744 21748 21752 21756 21760 21764 21768 21772 21776 
21780 21784 21788 21792 21796 21800 21804 21808 21812 
21816 21820 21824 21828 21832 21836 21840 21844 21848 
21852 21856 21860 21864 21868 21872 21876 21880 21884 
21888 21892 21896 21900 21904 21908 21912 21916 21920 
21924 21928 21932 21936 21940 21944 21948 21952 21956 
21960 21964 21968 21972 21976 21980 21984 21988 21992 
21996 22000 22004 22008 22012 22016 22020 22024 22028 
22032 22036 22040 22044 22048 22052 22056 22060 22064 
22068 22072 22076 22080 22084 22088 22092 22096 22100 
22104 22108 22112 22116 22120 22124 22128 22132 22136 
22140 22144 22148 22152 22156 22160 22164 22168 22172 
22176 22180 22184 22188 22192 22196 22200 22204 22208 
22212 22216 22220 22224 22228 22232 22236 22240 22244 
22248 22252 22256 22260 22264 22268 22272 22276 22280 
22284 22288 22292 22296 22300 22304 22308 22312 22316 
22320 22324 22328 22332 22336 22340 22344 22348 22352 
22356 22360 22364 22368 22372 22376 22380 22384 22388 
22392 22396 22400 22404 22408 22412 22416 22420 22424 
22428 22432 22436 22440 22444 22448 22452 22456 22460 
22464 22468 22472 22476 22480 22484 22488 22492 22496 
22500 22504 22508 22512 22516 22520 22524 22528 22532 
22536 22540 22544 22548 22552 22556 22560 22564 22568 
22572 22576 22580 22584 22588 22592 22596 22600 22604 
22608 22612 22616 22620 22624 22628 22632 22636 22640 
22644 22648 22652 22656 22660 22664 22668 22672 22676 
22680 22684 22688 22692 22696 22700 22704 22708 22712 
22716 22720 22724 22728 22732 22736 22740 22744 22748 
22752 22756 22760 22764 22768 22772 22776 22780 22784 
22788 22792 22796 22800 22804 22808 22812 22816 22820 
22824 22828 22832 22836 22840 22844 22848 22852 22856 
22860 22864 22868 22872 22876 22880 22884 22888 22892 
22896 22900 22904 22908 22912 22916 22920 22924 22928 
22932 22936 22940 22944 22948 22952 22956 22960 22964 
22968 22972 22976 22980 22984 22988 22992 22996 23000 
23004 23008 23012 23016 23020 23024 23028 23032 23036 
23040 23044 23048 23052 23056 23060 23064 23068 23072 
23076 23080 23084 23088 23092 23096 23100 23104 23108 
23112 23116 23120 23124 23128 23132 23136 23140 23144 
23148 23152 23156 23160 23164 23168 23172 23176 23180 
23184 23188 23192 23196 23200 23204 23208 23212 23216 
23220 23224 23228 23232 23236 23240 23244 23248 23252 
23256 23260 23264 23268 23272 23276 23280 23284 23288 
23292 23296 23300 23304 23308 23312 23316 23320 23324 
23328 23332 23336 23340 23344 23348 23352 23356 23360 
23364 23368 23372 23376 23380 23384 23388 23392 23396 
23400 23404 23408 23412 23416 23420 23424 23428 23432 
23436 23440 23444 23448 23452 23456 23460 23464 23468 
23472 23476 23480 23484 23488 23492 23496 23500 23504 
23508 23512 23516 23520 23524 23528 23532 23536 23540 
23544 23548 23552 23556 23560 23564 23568 23572 23576 
23580 23584 23588 23592 23596 23600 23604 23608 23612 
23616 23620 23624 23628 23632 23636 23640 23644 23648 
23652 23656 23660 23664 23668 23672 23676 23680 23684 
23688 23692 23696 23700 23704 23708 23712 23716 23720 
23724 23728 23732 23736 23740 23744 23748 23752 23756 
23760 23764 23768 23772 23776 23780 23784 23788 23792 
23796 23800 23804 23808 23812 23816 23820 23824 23828 
23832 23836 23840 23844 23848 23852 23856 23860 23864 
23868 23872 23876 23880 23884 23888 23892 23896 23900 
23904 23908 23912 23916 23920 23924 23928 23932 23936 
23940 23944 23948 23952 23956 23960 23964 23968 23972 
23976 23980 23984 23988 23992 23996 24000 24004 24008 
24012 24016 24020 24024 24028 24032 24036 24040 24044 
24048 24052 24056 24060 24064 24068 24072 24076 24080 
24084 24088 24092 24096 24100 24104 24108 24112 24116 
24120 24124 24128 24132 24136 24140 24144 24148 24152 
24156 24160 24164 24168 24172 24176 24180 24184 24188 
24192 24196 24200 24204 24208 24212 24216 24220 24224 
24228 24232 24236 24240 24244 24248 24252 24256 24260 
24264 24268 24272 24276 24280 24284 24288 24292 24296 
24300 24304 24308 24312 24316 24320 24324 24328 24332 
24336 24340 24344 24348 24352 24356 24360 24364 24368 
24372 24376 24380 24384 24388 24392 24396 24400 24404 
24408 24412 24416 24420 24424 24428 24432 24436 24440 
24444 24448 24452 24456 24460 24464 24468 24472 24476 
24480 24484 24488 24492 24496 24500 24504 24508 24512 
24516 24520 24524 24528 24532 24536 24540 24544 24548 
24552 24556 24560 24564 24568 24572 24576 24580 24584 
24588 24592 24596 24600 24604 24608 24612 24616 24620 
24624 24628 24632 24636 24640 24644 24648 24652 24656 
24660 24664 24668 24672 24676 24680 24684 24688 24692 
24696 24700 24704 24708 24712 24716 24720 24724 24728 
24732 24736 24740 24744 24748 24752 24756 24760 24764 
24768 24772 24776 24780 24784 24788 24792 24796 24800 
24804 24808 24812 24816 24820 24824 24828 24832 24836 
24840 24844 24848 24852 24856 24860 24864 24868 24872 
24876 24880 24884 24888 24892 24896 24900 24904 24908 
24912 24916 24920 24924 24928 24932 24936 24940 24944 
24948 24952 24956 24960 24964 24968 24972 24976 24980 
24984 24988 24992 24996 25000 25004 25008 25012 25016 
25020 25024 25028 25032 25036 25040 25044 25048 25052 
25056 25060 25064 25068 25072 25076 25080 25084 25088 
25092 25096 25100 25104 25108 25112 25116 25120 25124 
25128 25132 25136 25140 25144 25148 25152 25156 25160 
25164 25168 25172 25176 25180 25184 25188 25192 25196 
25200 25204 25208 25212 25216 25220 25224 25228 25232 
25236 25240 25244 25248 25252 25256 25260 25264 25268 
25272 25276 25280 25284 25288 25292 25296 25300 25304 
25308 25312 25316 25320 25324 25328 25332 25336 25340 
25344 25348 25352 25356 25360 25364 25368 25372 25376 
25380 25384 25388 25392 25396 25400 25404 25408 25412 
25416 25420 25424 25428 25432 25436 25440 25444 25448 
25452 25456 25460 25464 25468 25472 25476 25480 25484 
25488 25492 25496 25500 25504 25508 25512 25516 25520 
25524 25528 25532 25536 25540 25544 25548 25552 25556 
25560 25564 25568 25572 25576 25580 25584 25588 25592 
25596 25600 25604 25608 25612 25616 25620 25624 25628 
25632 25636 25640 25644 25648 25652 25656 25660 25664 
25668 25672 25676 25680 25684 25688 25692 25696 25700 
25704 25708 25712 25716 25720 25724 25728 25732 25736 
25740 25744 25748 25752 25756 25760 25764 25768 25772 
25776 25780 25784 25788 25792 25796 25800 25804 25808 
25812 25816 25820 25824 25828 25832 25836 25840 25844 
25848 25852 25856 25860 25864 25868 25872 25876 25880 
25884 25888 25892 25896 25900 25904 25908 25912 25916 
25920 25924 25928 25932 25936 25940 25944 25948 25952 
25956 25960 25964 25968 25972 25976 25980 25984 25988 
25992 25996 26000 26004 26008 26012 26016 26020 26024 
26028 26032 26036 26040 26044 26048 26052 26056 26060 
26064 26068 26072 26076 26080 26084 26088 26092 26096 
26100 26104 26108 26112 26116 26120 26124 26128 26132 
26136 26140 26144 26148 26152 26156 26160 26164 26168 
26172 26176 26180 26184 26188 26192 26196 26200 26204 
26208 26212 26216 26220 26224 26228 26232 26236 26240 
26244 26248 26252 26256 26260 26264 26268 26272 26276 
26280 26284 26288 26292 26296 26300 26304 26308 26312 
26316 26320 26324 26328 26332 26336 26340 26344 26348 
26352 26356 26360 26364 26368 26372 26376 26380 26384 
26388 26392 26396 26400 26404 26408 26412 26416 26420 
26424 26428 26432 26436 26440 26444 26448 26452 26456 
26460 26464 26468 26472 26476 26480 26484 26488 26492 
26496 26500 26504 26508 26512 26516 26520 26524 26528 
26532 26536 26540 26544 26548 26552 26556 26560 26564 
26568 26572 26576 26580 26584 26588 26592 26596 26600 
26604 26608 26612 26616 26620 26624 26628 26632 26636 
26640 26644 26648 26652 26656 26660 26664 26668 26672 
26676 26680 26684 26688 26692 26696 26700 26704 26708 
26712 26716 26720 26724 26728 26732 26736 26740 26744 
26748 26752 26756 26760 26764 26768 26772 26776 26780 
26784 26788 26792 26796 26800 26804 26808 26812 26816 
26820 26824 26828 26832 26836 26840 26844 26848 26852 
26856 26860 26864 26868 26872 26876 26880 26884 26888 
26892 26896 26900 26904 26908 26912 26916 26920 26924 
26928 26932 26936 26940 26944 26948 26952 26956 26960 
26964 26968 26972 26976 26980 26984 26988 26992 26996 
27000 27004 27008 27012 27016 27020 27024 27028 27032 
27036 27040 27044 27048 27052 27056 27060 27064 27068 
27072 27076 27080 27084 27088 27092 27096 27100 27104 
27108 27112 27116 27120 27124 27128 27132 27136 27140 
27144 27148 27152 27156 27160 27164 27168 27172 27176 
27180 27184 27188 27192 27196 27200 27204 27208 27212 
27216 27220 27224 27228 27232 27236 27240 27244 27248 
27252 27256 27260 27264 27268 27272 27276 27280 27284 
27288 27292 27296 27300 27304 27308 27312 27316 27320 
27324 27328 27332 27336 27340 27344 27348 27352 27356 
27360 27364 27368 27372 27376 27380 27384 27388 27392 
27396 27400 27404 27408 27412 27416 27420 27424 27428 
27432 27436 27440 27444 27448 27452 27456 27460 27464 
27468 27472 27476 27480 27484 27488 27492 27496 27500 
27504 27508 27512 27516 27520 27524 27528 27532 27536 
27540 27544 27548 27552 27556 27560 27564 27568 27572 
27576 27580 27584 27588 27592 27596 27600 27604 27608 
27612 27616 27620 27624 27628 27632 27636 27640 27644 
27648 27652 27656 27660 27664 27668 27672 27676 27680 
27684 27688 27692 27696 27700 27704 27708 27712 27716 
27720 27724 27728 27732 27736 27740 27744 27748 27752 
27756 27760 27764 27768 27772 27776 27780 27784 27788 
27792 27796 27800 27804 27808 27812 27816 27820 27824 
27828 27832 27836 27840 27844 27848 27852 27856 27860 
27864 27868 27872 27876 27880 27884 27888 27892 27896 
27900 27904 27908 27912 27916 27920 27924 27928 27932 
27936 27940 27944 27948 27952 27956 27960 27964 27968 
27972 27976 27980 27984 27988 27992 27996 28000 28004 
28008 28012 28016 28020 28024 28028 28032 28036 28040 
28044 28048 28052 28056 28060 28064 28068 28072 28076 
28080 28084 28088 28092 28096 28100 28104 28108 28112 
28116 28120 28124 28128 28132 28136 28140 28144 28148 
28152 28156 28160 28164 28168 28172 28176 28180 28184 
28188 28192 28196 28200 28204 28208 28212 28216 28220 
28224 28228 28232 28236 28240 28244 28248 28252 28256 
28260 28264 28268 28272 28276 28280 28284 28288 28292 
28296 28300 28304 28308 28312 28316 28320 28324 28328 
28332 28336 28340 28344 28348 28352 28356 28360 28364 
28368 28372 28376 28380 28384 28388 28392 28396 28400 
28404 28408 28412 28416 28420 28424 28428 28432 28436 
28440 28444 28448 28452 28456 28460 28464 28468 28472 
28476 28480 28484 28488 28492 28496 28500 28504 28508 
28512 28516 28520 28524 28528 28532 28536 28540 28544 
28548 28552 28556 28560 28564 28568 28572 28576 28580 
28584 28588 28592 28596 28600 28604 28608 28612 28616 
28620 28624 28628 28632 28636 28640 28644 28648 28652 
28656 28660 28664 28668 28672 28676 28680 28684 28688 
28692 28696 28700 28704 28708 28712 28716 28720 28724 
28728 28732 28736 28740 28744 28748 28752 28756 28760 
28764 28768 28772 28776 28780 28784 28788 28792 28796 
28800 28804 28808 28812 28816 28820 28824 28828 28832 
28836 28840 28844 28848 28852 28856 28860 28864 28868 
28872 28876 28880 28884 28888 28892 28896 28900 28904 
28908 28912 28916 28920 28924 28928 28932 28936 28940 
28944 28948 28952 28956 28960 28964 28968 28972 28976 
28980 28984 28988 28992 28996 29000 29004 29008 29012 
29016 29020 29024 29028 29032 29036 29040 29044 29048 
29052 29056 29060 29064 29068 29072 29076 29080 29084 
29088 29092 29096 29100 29104 29108 29112 29116 29120 
29124 29128 29132 29136 29140 29144 29148 29152 29156 
29160 29164 29168 29172 29176 29180 29184 29188 29192 
29196 29200 29204 29208 29212 29216 29220 29224 29228 
29232 29236 29240 29244 29248 29252 29256 29260 29264 
29268 29272 29276 29280 29284 29288 29292 29296 29300 
29304 29308 29312 29316 29320 29324 29328 29332 29336 
29340 29344 29348 29352 29356 29360 29364 29368 29372 
29376 29380 29384 29388 29392 29396 29400 29404 29408 
29412 29416 29420 29424 29428 29432 29436 29440 29444 
29448 29452 29456 29460 29464 29468 29472 29476 29480 
29484 29488 29492 29496 29500 29504 29508 29512 29516 
29520 29524 29528 29532 29536 29540 29544 29548 29552 
29556 29560 29564 29568 29572 29576 29580 29584 29588 
29592 29596 29600 29604 29608 29612 29616 29620 29624 
29628 29632 29636 29640 29644 29648 29652 29656 29660 
29664 29668 29672 29676 29680 29684 29688 29692 29696 
29700 29704 29708 29712 29716 29720 29724 29728 29732 
29736 29740 29744 29748 29752 29756 29760 29764 29768 
29772 29776 29780 29784 29788 29792 29796 29800 29804 
29808 29812 29816 29820 29824 29828 29832 29836 29840 
29844 29848 29852 29856 29860 29864 29868 29872 29876 
29880 29884 29888 29892 29896 29900 29904 29908 29912 
29916 29920 29924 29928 29932 29936 29940 29944 29948 
29952 29956 29960 29964 29968 29972 29976 29980 29984 
29988 29992 29996 30000 30004 30008 30012 30016 30020 
30024 30028 30032 30036 30040 30044 30048 30052 30056 
30060 30064 30068 30072 30076 30080 30084 30088 30092 
30096 30100 30104 30108 30112 30116 30120 30124 30128 
30132 30136 30140 30144 30148 30152 30156 30160 30164 
30168 30172 30176 30180 30184 30188 30192 30196 30200 
30204 30208 30212 30216 30220 30224 30228 30232 30236 
30240 30244 30248 30252 30256 30260 30264 30268 30272 
30276 30280 30284 30288 30292 30296 30300 30304 30308 
30312 30316 30320 30324 30328 30332 30336 30340 30344 
30348 30352 30356 30360 30364 30368 30372 30376 30380 
30384 30388 30392 30396 30400 30404 30408 30412 30416 
30420 30424 30428 30432 30436 30440 30444 30448 30452 
30456 30460 30464 30468 30472 30476 30480 30484 30488 
30492 30496 30500 30504 30508 30512 30516 30520 30524 
30528 30532 30536 30540 30544 30548 30552 30556 30560 
30564 30568 30572 30576 30580 30584 30588 30592 30596 
30600 30604 30608 30612 30616 30620 30624 30628 30632 
30636 30640 30644 30648 30652 30656 30660 30664 30668 
30672 30676 30680 30684 30688 30692 30696 30700 30704 
30708 30712 30716 30720 30724 30728 30732 30736 30740 
30744 30748 30752 30756 30760 30764 30768 30772 30776 
30780 30784 30788 30792 30796 30800 30804 30808 30812 
30816 30820 30824 30828 30832 30836 30840 30844 30848 
30852 30856 30860 30864 30868 30872 30876 30880 30884 
30888 30892 30896 30900 30904 30908 30912 30916 30920 
30924 30928 30932 30936 30940 30944 30948 30952 30956 
30960 30964 30968 30972 30976 30980 30984 30988 30992 
30996 31000 31004 31008 31012 31016 31020 31024 31028 
31032 31036 31040 31044 31048 31052 31056 31060 31064 
31068 31072 31076 31080 31084 31088 31092 31096 31100 
31104 31108 31112 31116 31120 31124 31128 31132 31136 
31140 31144 31148 31152 31156 31160 31164 31168 31172 
31176 31180 31184 31188 31192 31196 31200 31204 31208 
31212 31216 31220 31224 31228 31232 31236 31240 31244 
31248 31252 31256 31260 31264 31268 31272 31276 31280 
31284 31288 31292 31296 31300 31304 31308 31312 31316 
31320 31324 31328 31332 31336 31340 31344 31348 31352 
31356 31360 31364 31368 31372 31376 31380 31384 31388 
31392 31396 31400 31404 31408 31412 31416 31420 31424 
31428 31432 31436 31440 31444 31448 31452 31456 31460 
31464 31468 31472 31476 31480 31484 31488 31492 31496 
31500 31504 31508 31512 31516 31520 31524 31528 31532 
31536 31540 31544 31548 31552 31556 31560 31564 31568 
31572 31576 31580 31584 31588 31592 31596 31600 31604 
31608 31612 31616 31620 31624 31628 31632 31636 31640 
31644 31648 31652 31656 31660 31664 31668 31672 31676 
31680 31684 31688 31692 31696 31700 31704 31708 31712 
31716 31720 31724 31728 31732 31736 31740 31744 31748 
31752 31756 31760 31764 31768 31772 31776 31780 31784 
31788 31792 31796 31800 31804 31808 31812 31816 31820 
31824 31828 31832 31836 31840 31844 31848 31852 31856 
31860 31864 31868 31872 31876 31880 31884 31888 31892 
31896 31900 31904 31908 31912 31916 31920 31924 31928 
31932 31936 31940 31944 31948 31952 31956 31960 31964 
31968 31972 31976 31980 31984 31988 31992 31996 32000 
32004 32008 32012 32016 32020 32024 32028 32032 32036 
32040 32044 32048 32052 32056 32060 32064 32068 32072 
32076 32080 32084 32088 32092 32096 32100 32104 32108 
32112 32116 32120 32124 32128 32132 32136 32140 32144 
32148 32152 32156 32160 32164 32168 32172 32176 32180 
32184 32188 32192 32196 32200 32204 32208 32212 32216 
32220 32224 32228 32232 32236 32240 32244 32248 32252 
32256 32260 32264 32268 32272 32276 32280 32284 32288 
32292 32296 32300 32304 32308 32312 32316 32320 32324 
32328 32332 32336 32340 32344 32348 32352 32356 32360 
32364 32368 32372 32376 32380 32384 32388 32392 32396 
32400 32404 32408 32412 32416 32420 32424 32428 32432 
32436 32440 32444 32448 32452 32456 32460 32464 32468 
32472 32476 32480 32484 32488 32492 32496 32500 32504 
32508 32512 32516 32520 32524 32528 32532 32536 32540 
32544 32548 32552 32556 32560 32564 32568 32572 32576 
32580 32584 32588 32592 32596 32600 32604 32608 32612 
32616 32620 32624 32628 32632 32636 32640 32644 32648 
32652 32656 32660 32664 32668 32672 32676 32680 32684 
32688 32692 32696 32700 32704 32708 32712 32716 32720 
32724 32728 32732 32736 32740 32744 32748 32752 32756 
32760 32764 32768 32772 32776 32780 32784 32788 32792 
32796 32800 32804 32808 32812 32816 32820 32824 32828 
32832 32836 32840 32844 32848 32852 32856 32860 32864 
32868 32872 32876 32880 32884 32888 32892 32896 32900 
32904 32908 32912 32916 32920 32924 32928 32932 32936 
32940 32944 32948 32952 32956 32960 32964 32968 32972 
32976 32980 32984 32988 32992 32996 33000 33004 33008 
33012 33016 33020 33024 33028 33032 33036 33040 33044 
33048 33052 33056 33060 33064 33068 33072 33076 33080 
33084 33088 33092 33096 33100 33104 33108 33112 33116 
33120 33124 33128 33132 33136 33140 33144 33148 33152 
33156 33160 33164 33168 33172 33176 33180 33184 33188 
33192 33196 33200 33204 33208 33212 33216 33220 33224 
33228 33232 33236 33240 33244 33248 33252 33256 33260 
33264 33268 33272 33276 33280 33284 33288 33292 33296 
33300 33304 33308 33312 33316 33320 33324 33328 33332 
33336 33340 33344 33348 33352 33356 33360 33364 33368 
33372 33376 33380 33384 33388 33392 33396 33400 33404 
33408 33412 33416 33420 33424 33428 33432 33436 33440 
33444 33448 33452 33456 33460 33464 33468 33472 33476 
33480 33484 33488 33492 33496 33500 33504 33508 33512 
33516 33520 33524 33528 33532 33536 33540 33544 33548 
33552 33556 33560 33564 33568 33572 33576 33580 33584 
33588 33592 33596 33600 33604 33608 33612 33616 33620 
33624 33628 33632 33636 33640 33644 33648 33652 33656 
33660 33664 33668 33672 33676 33680 33684 33688 33692 
33696 33700 33704 33708 33712 33716 33720 33724 33728 
33732 33736 33740 33744 33748 33752 33756 33760 33764 
33768 33772 33776 33780 33784 33788 33792 33796 33800 
33804 33808 33812 33816 33820 33824 33828 33832 33836 
33840 33844 33848 33852 33856 33860 33864 33868 33872 
33876 33880 33884 33888 33892 33896 33900 33904 33908 
33912 33916 33920 33924 33928 33932 33936 33940 33944 
33948 33952 33956 33960 33964 33968 33972 33976 33980 
33984 33988 33992 33996 34000 34004 34008 34012 34016 
34020 34024 34028 34032 34036 34040 34044 34048 34052 
34056 34060 34064 34068 34072 34076 34080 34084 34088 
34092 34096 34100 34104 34108 34112 34116 34120 34124 
34128 34132 34136 34140 34144 34148 34152 34156 34160 
34164 34168 34172 34176 34180 34184 34188 34192 34196 
34200 34204 34208 34212 34216 34220 34224 34228 34232 
34236 34240 34244 34248 34252 34256 34260 34264 34268 
34272 34276 34280 34284 34288 34292 34296 34300 34304 
34308 34312 34316 34320 34324 34328 34332 34336 34340 
34344 34348 34352 34356 34360 34364 34368 34372 34376 
34380 34384 34388 34392 34396 34400 34404 34408 34412 
34416 34420 34424 34428 34432 34436 34440 34444 34448 
34452 34456 34460 34464 34468 34472 34476 34480 34484 
34488 34492 34496 34500 34504 34508 34512 34516 34520 
34524 34528 34532 34536 34540 34544 34548 34552 34556 
34560 34564 34568 34572 34576 34580 34584 34588 34592 
34596 34600 34604 34608 34612 34616 34620 34624 34628 
34632 34636 34640 34644 34648 34652 34656 34660 34664 
34668 34672 34676 34680 34684 34688 34692 34696 34700 
34704 34708 34712 34716 34720 34724 34728 34732 34736 
34740 34744 34748 34752 34756 34760 34764 34768 34772 
34776 34780 34784 34788 34792 34796 34800 34804 34808 
34812 34816 34820 34824 34828 34832 34836 34840 34844 
34848 34852 34856 34860 34864 34868 34872 34876 34880 
34884 34888 34892 34896 34900 34904 34908 34912 34916 
34920 34924 34928 34932 34936 34940 34944 34948 34952 
34956 34960 34964 34968 34972 34976 34980 34984 34988 
34992 34996 35000 35004 35008 35012 35016 35020 35024 
35028 35032 35036 35040 35044 35048 35052 35056 35060 
35064 35068 35072 35076 35080 35084 35088 35092 35096 
35100 35104 35108 35112 35116 35120 35124 35128 35132 
35136 35140 35144 35148 35152 35156 35160 35164 35168 
35172 35176 35180 35184 35188 35192 35196 35200 35204 
35208 35212 35216 35220 35224 35228 35232 35236 35240 
35244 35248 35252 35256 35260 35264 35268 35272 35276 
35280 35284 35288 35292 35296 35300 35304 35308 35312 
35316 35320 35324 35328 35332 35336 35340 35344 35348 
35352 35356 35360 35364 35368 35372 35376 35380 35384 
35388 35392 35396 35400 35404 35408 35412 35416 35420 
35424 35428 35432 35436 35440 35444 35448 35452 35456 
35460 35464 35468 35472 35476 35480 35484 35488 35492 
35496 35500 35504 35508 35512 35516 35520 35524 35528 
35532 35536 35540 35544 35548 35552 35556 35560 35564 
35568 35572 35576 35580 35584 35588 35592 35596 35600 
35604 35608 35612 35616 35620 35624 35628 35632 35636 
35640 35644 35648 35652 35656 35660 35664 35668 35672 
35676 35680 35684 35688 35692 35696 35700 35704 35708 
35712 35716 35720 35724 35728 35732 35736 35740 35744 
35748 35752 35756 35760 35764 35768 35772 35776 35780 
35784 35788 35792 35796 35800 35804 35808 35812 35816 
35820 35824 35828 35832 35836 35840 35844 35848 35852 
35856 35860 35864 35868 35872 35876 35880 35884 35888 
35892 35896 35900 35904 35908 35912 35916 35920 35924 
35928 35932 35936 35940 35944 35948 35952 35956 35960 
35964 35968 35972 35976 35980 35984 35988 35992 35996 
36000 36004 36008 36012 36016 36020 36024 36028 36032 
36036 36040 36044 36048 36052 36056 36060 36064 36068 
36072 36076 36080 36084 36088 36092 36096 36100 36104 
36108 36112 36116 36120 36124 36128 36132 36136 36140 
36144 36148 36152 36156 36160 36164 36168 36172 36176 
36180 36184 36188 36192 36196 36200 36204 36208 36212 
36216 36220 36224 36228 36232 36236 36240 36244 36248 
36252 36256 36260 36264 36268 36272 36276 36280 36284 
36288 36292 36296 36300 36304 36308 36312 36316 36320 
36324 36328 36332 36336 36340 36344 36348 36352 36356 
36360 36364 36368 36372 36376 36380 36384 36388 36392 
36396 36400 36404 36408 36412 36416 36420 36424 36428 
36432 36436 36440 36444 36448 36452 36456 36460 36464 
36468 36472 36476 36480 36484 36488 36492 36496 36500 
36504 36508 36512 36516 36520 36524 36528 36532 36536 
36540 36544 36548 36552 36556 36560 36564 36568 36572 
36576 36580 36584 36588 36592 36596 36600 36604 36608 
36612 36616 36620 36624 36628 36632 36636 36640 36644 
36648 36652 36656 36660 36664 36668 36672 36676 36680 
36684 36688 36692 36696 36700 36704 36708 36712 36716 
36720 36724 36728 36732 36736 36740 36744 36748 36752 
36756 36760 36764 36768 36772 36776 36780 36784 36788 
36792 36796 36800 36804 36808 36812 36816 36820 36824 
36828 36832 36836 36840 36844 36848 36852 36856 36860 
36864 36868 36872 36876 36880 36884 36888 36892 36896 
36900 36904 36908 36912 36916 36920 36924 36928 36932 
36936 36940 36944 36948 36952 36956 36960 36964 36968 
36972 36976 36980 36984 36988 36992 36996 37000 37004 
37008 37012 37016 37020 37024 37028 37032 37036 37040 
37044 37048 37052 37056 37060 37064 37068 37072 37076 
37080 37084 37088 37092 37096 37100 37104 37108 37112 
37116 37120 37124 37128 37132 37136 37140 37144 37148 
37152 37156 37160 37164 37168 37172 37176 37180 37184 
37188 37192 37196 37200 37204 37208 37212 37216 37220 
37224 37228 37232 37236 37240 37244 37248 37252 37256 
37260 37264 37268 37272 37276 37280 37284 37288 37292 
37296 37300 37304 37308 37312 37316 37320 37324 37328 
37332 37336 37340 37344 37348 37352 37356 37360 37364 
37368 37372 37376 37380 37384 37388 37392 37396 37400 
37404 37408 37412 37416 37420 37424 37428 37432 37436 
37440 37444 37448 37452 37456 37460 37464 37468 37472 
37476 37480 37484 37488 37492 37496 37500 37504 37508 
37512 37516 37520 37524 37528 37532 37536 37540 37544 
37548 37552 37556 37560 37564 37568 37572 37576 37580 
37584 37588 37592 37596 37600 37604 37608 37612 37616 
37620 37624 37628 37632 37636 37640 37644 37648 37652 
37656 37660 37664 37668 37672 37676 37680 37684 37688 
37692 37696 37700 37704 37708 37712 37716 37720 37724 
37728 37732 37736 37740 37744 37748 37752 37756 37760 
37764 37768 37772 37776 37780 37784 37788 37792 37796 
37800 37804 37808 37812 37816 37820 37824 37828 37832 
37836 37840 37844 37848 37852 37856 37860 37864 37868 
37872 37876 37880 37884 37888 37892 37896 37900 37904 
37908 37912 37916 37920 37924 37928 37932 37936 37940 
37944 37948 37952 37956 37960 37964 37968 37972 37976 
37980 37984 37988 37992 37996 38000 38004 38008 38012 
38016 38020 38024 38028 38032 38036 38040 38044 38048 
38052 38056 38060 38064 38068 38072 38076 38080 38084 
38088 38092 38096 38100 38104 38108 38112 38116 38120 
38124 38128 38132 38136 38140 38144 38148 38152 38156 
38160 38164 38168 38172 38176 38180 38184 38188 38192 
38196 38200 38204 38208 38212 38216 38220 38224 38228 
38232 38236 38240 38244 38248 38252 38256 38260 38264 
38268 38272 38276 38280 38284 38288 38292 38296 38300 
38304 38308 38312 38316 38320 38324 38328 38332 38336 
38340 38344 38348 38352 38356 38360 38364 38368 38372 
38376 38380 38384 38388 38392 38396 38400 38404 38408 
38412 38416 38420 38424 38428 38432 38436 38440 38444 
38448 38452 38456 38460 38464 38468 38472 38476 38480 
38484 38488 38492 38496 38500 38504 38508 38512 38516 
38520 38524 38528 38532 38536 38540 38544 38548 38552 
38556 38560 38564 38568 38572 38576 38580 38584 38588 
38592 38596 38600 38604 38608 38612 38616 38620 38624 
38628 38632 38636 38640 38644 38648 38652 38656 38660 
38664 38668 38672 38676 38680 38684 38688 38692 38696 
38700 38704 38708 38712 38716 38720 38724 38728 38732 
38736 38740 38744 38748 38752 38756 38760 38764 38768 
38772 38776 38780 38784 38788 38792 38796 38800 38804 
38808 38812 38816 38820 38824 38828 38832 38836 38840 
38844 38848 38852 38856 38860 38864 38868 38872 38876 
38880 38884 38888 38892 38896 38900 38904 38908 38912 
38916 38920 38924 38928 38932 38936 38940 38944 38948 
38952 38956 38960 38964 38968 38972 38976 38980 38984 
38988 38992 38996 39000 39004 39008 39012 39016 39020 
39024 39028 39032 39036 39040 39044 39048 39052 39056 
39060 39064 39068 39072 39076 39080 39084 39088 39092 
39096 39100 39104 39108 39112 39116 39120 39124 39128 
39132 39136 39140 39144 39148 39152 39156 39160 39164 
39168 39172 39176 39180 39184 39188 39192 39196 39200 
39204 39208 39212 39216 39220 39224 39228 39232 39236 
39240 39244 39248 39252 39256 39260 39264 39268 39272 
39276 39280 39284 39288 39292 39296 39300 39304 39308 
39312 39316 39320 39324 39328 39332 39336 39340 39344 
39348 39352 39356 39360 39364 39368 39372 39376 39380 
39384 39388 39392 39396 39400 39404 39408 39412 39416 
39420 39424 39428 39432 39436 39440 39444 39448 39452 
39456 39460 39464 39468 39472 39476 39480 39484 39488 
39492 39496 39500 39504 39508 39512 39516 39520 39524 
39528 39532 39536 39540 39544 39548 39552 39556 39560 
39564 39568 39572 39576 39580 39584 39588 39592 39596 
39600 39604 39608 39612 39616 39620 39624 39628 39632 
39636 39640 39644 39648 39652 39656 39660 39664 39668 
39672 39676 39680 39684 39688 39692 39696 39700 39704 
39708 39712 39716 39720 39724 39728 39732 39736 39740 
39744 39748 39752 39756 39760 39764 39768 39772 39776 
39780 39784 39788 39792 39796 39800 39804 39808 39812 
39816 39820 39824 39828 39832 39836 39840 39844 39848 
39852 39856 39860 39864 39868 39872 39876 39880 39884 
39888 39892 39896 39900 39904 39908 39912 39916 39920 
39924 39928 39932 39936 39940 39944 39948 39952 39956 
39960 39964 39968 39972 39976 39980 39984 39988 39992 
39996 40000 40004 40008 40012 40016 40020 40024 40028 
40032 40036 40040 40044 40048 40052 40056 40060 40064 
40068 40072 40076 40080 40084 40088 40092 40096 40100 
40104 40108 40112 40116 40120 40124 40128 40132 40136 
40140 40144 40148 40152 40156 40160 40164 40168 40172 
40176 40180 40184 40188 40192 40196 40200 40204 40208 
40212 40216 40220 40224 40228 40232 40236 40240 40244 
40248 40252 40256 40260 40264 40268 40272 40276 40280 
40284 40288 40292 40296 40300 40304 40308 40312 40316 
40320 40324 40328 40332 40336 40340 40344 40348 40352 
40356 40360 40364 40368 40372 40376 40380 40384 40388 
40392 40396 40400 40404 40408 40412 40416 40420 40424 
40428 40432 40436 40440 40444 40448 40452 40456 40460 
40464 40468 40472 40476 40480 40484 40488 40492 40496 
40500 40504 40508 40512 40516 40520 40524 40528 40532 
40536 40540 40544 40548 40552 40556 40560 40564 40568 
40572 40576 40580 40584 40588 40592 40596 40600 40604 
40608 40612 40616 40620 40624 40628 40632 40636 40640 
40644 40648 40652 40656 40660 40664 40668 40672 40676 
40680 40684 40688 40692 40696 40700 40704 40708 40712 
40716 40720 40724 40728 40732 40736 40740 40744 40748 
40752 40756 40760 40764 40768 40772 40776 40780 40784 
40788 40792 40796 40800 40804 40808 40812 40816 40820 
40824 40828 40832 40836 40840 40844 40848 40852 40856 
40860 40864 40868 40872 40876 40880 40884 40888 40892 
40896 40900 40904 40908 40912 40916 40920 40924 40928 
40932 40936 40940 40944 40948 40952 40956 40960 40964 
40968 40972 40976 40980 40984 40988 40992 40996 41000 
41004 41008 41012 41016 41020 41024 41028 41032 41036 
41040 41044 41048 41052 41056 41060 41064 41068 41072 
41076 41080 41084 41088 41092 41096 41100 41104 41108 
41112 41116 41120 41124 41128 41132 41136 41140 41144 
41148 41152 41156 41160 41164 41168 41172 41176 41180 
41184 41188 41192 41196 41200 41204 41208 41212 41216 
41220 41224 41228 41232 41236 41240 41244 41248 41252 
41256 41260 41264 41268 41272 41276 41280 41284 41288 
41292 41296 41300 41304 41308 41312 41316 41320 41324 
41328 41332 41336 41340 41344 41348 41352 41356 41360 
41364 41368 41372 41376 41380 41384 41388 41392 41396 
41400 41404 41408 41412 41416 41420 41424 41428 41432 
41436 41440 41444 41448 41452 41456 41460 41464 41468 
41472 41476 41480 41484 41488 41492 41496 41500 41504 
41508 41512 41516 41520 41524 41528 41532 41536 41540 
41544 41548 41552 41556 41560 41564 41568 41572 41576 
41580 41584 41588 41592 41596 41600 41604 41608 41612 
41616 41620 41624 41628 41632 41636 41640 41644 41648 
41652 41656 41660 41664 41668 41672 41676 41680 41684 
41688 41692 41696 41700 41704 41708 41712 41716 41720 
41724 41728 41732 41736 41740 41744 41748 41752 41756 
41760 41764 41768 41772 41776 41780 41784 41788 41792 
41796 41800 41804 41808 41812 41816 41820 41824 41828 
41832 41836 41840 41844 41848 41852 41856 41860 41864 
41868 41872 41876 41880 41884 41888 41892 41896 41900 
41904 41908 41912 41916 41920 41924 41928 41932 41936 
41940 41944 41948 41952 41956 41960 41964 41968 41972 
41976 41980 41984 41988 41992 41996 42000 42004 42008 
42012 42016 42020 42024 42028 42032 42036 42040 42044 
42048 42052 42056 42060 42064 42068 42072 42076 42080 
42084 42088 42092 42096 42100 42104 42108 42112 42116 
42120 42124 42128 42132 42136 42140 42144 42148 42152 
42156 42160 42164 42168 42172 42176 42180 42184 42188 
42192 42196 42200 42204 42208 42212 42216 42220 42224 
42228 42232 42236 42240 42244 42248 42252 42256 42260 
42264 42268 42272 42276 42280 42284 42288 42292 42296 
42300 42304 42308 42312 42316 42320 42324 42328 42332 
42336 42340 42344 42348 42352 42356 42360 42364 42368 
42372 42376 42380 42384 42388 42392 42396 42400 42404 
42408 42412 42416 42420 42424 42428 42432 42436 42440 
42444 42448 42452 42456 42460 42464 42468 42472 42476 
42480 42484 42488 42492 42496 42500 42504 42508 42512 
42516 42520 42524 42528 42532 42536 42540 42544 42548 
42552 42556 42560 42564 42568 42572 42576 42580 42584 
42588 42592 42596 42600 42604 42608 42612 42616 42620 
42624 42628 42632 42636 42640 42644 42648 42652 42656 
42660 42664 42668 42672 42676 42680 42684 42688 42692 
42696 42700 42704 42708 42712 42716 42720 42724 42728 
42732 42736 42740 42744 42748 42752 42756 42760 42764 
42768 42772 42776 42780 42784 42788 42792 42796 42800 
42804 42808 42812 42816 42820 42824 42828 42832 42836 
42840 42844 42848 42852 42856 42860 42864 42868 42872 
42876 42880 42884 42888 42892 42896 42900 42904 42908 
42912 42916 42920 42924 42928 42932 42936 42940 42944 
42948 42952 42956 42960 42964 42968 42972 42976 42980 
42984 42988 42992 42996 43000 43004 43008 43012 43016 
43020 43024 43028 43032 43036 43040 43044 43048 43052 
43056 43060 43064 43068 43072 43076 43080 43084 43088 
43092 43096 43100 43104 43108 43112 43116 43120 43124 
43128 43132 43136 43140 43144 43148 43152 43156 43160 
43164 43168 43172 43176 43180 43184 43188 43192 43196 
43200 43204 43208 43212 43216 43220 43224 43228 43232 
43236 43240 43244 43248 43252 43256 43260 43264 43268 
43272 43276 43280 43284 43288 43292 43296 43300 43304 
43308 43312 43316 43320 43324 43328 43332 43336 43340 
43344 43348 43352 43356 43360 43364 43368 43372 43376 
43380 43384 43388 43392 43396 43400 43404 43408 43412 
43416 43420 43424 43428 43432 43436 43440 43444 43448 
43452 43456 43460 43464 43468 43472 43476 43480 43484 
43488 43492 43496 43500 43504 43508 43512 43516 43520 
43524 43528 43532 43536 43540 43544 43548 43552 43556 
43560 43564 43568 43572 43576 43580 43584 43588 43592 
43596 43600 43604 43608 43612 43616 43620 43624 43628 
43632 43636 43640 43644 43648 43652 43656 43660 43664 
43668 43672 43676 43680 43684 43688 43692 43696 43700 
43704 43708 43712 43716 43720 43724 43728 43732 43736 
43740 43744 43748 43752 43756 43760 43764 43768 43772 
43776 43780 43784 43788 43792 43796 43800 43804 43808 
43812 43816 43820 43824 43828 43832 43836 43840 43844 
43848 43852 43856 43860 43864 43868 43872 43876 43880 
43884 43888 43892 43896 43900 43904 43908 43912 43916 
43920 43924 43928 43932 43936 43940 43944 43948 43952 
43956 43960 43964 43968 43972 43976 43980 43984 43988 
43992 43996 44000 44004 44008 44012 44016 44020 44024 
44028 44032 44036 44040 44044 44048 44052 44056 44060 
44064 44068 44072 44076 44080 44084 44088 44092 44096 
44100 44104 44108 44112 44116 44120 44124 44128 44132 
44136 44140 44144 44148 44152 44156 44160 44164 44168 
44172 44176 44180 44184 44188 44192 44196 44200 44204 
44208 44212 44216 44220 44224 44228 44232 44236 44240 
44244 44248 44252 44256 44260 44264 44268 44272 44276 
44280 44284 44288 44292 44296 44300 44304 44308 44312 
44316 44320 44324 44328 44332 44336 44340 44344 44348 
44352 44356 44360 44364 44368 44372 44376 44380 44384 
44388 44392 44396 44400 44404 44408 44412 44416 44420 
44424 44428 44432 44436 44440 44444 44448 44452 44456 
44460 44464 44468 44472 44476 44480 44484 44488 44492 
44496 44500 44504 44508 44512 44516 44520 44524 44528 
44532 44536 44540 44544 44548 44552 44556 44560 44564 
44568 44572 44576 44580 44584 44588 44592 44596 44600 
44604 44608 44612 44616 44620 44624 44628 44632 44636 
44640 44644 44648 44652 44656 44660 44664 44668 44672 
44676 44680 44684 44688 44692 44696 44700 44704 44708 
44712 44716 44720 44724 44728 44732 44736 44740 44744 
44748 44752 44756 44760 44764 44768 44772 44776 44780 
44784 44788 44792 44796 44800 44804 44808 44812 44816 
44820 44824 44828 44832 44836 44840 44844 44848 44852 
44856 44860 44864 44868 44872 44876 44880 44884 44888 
44892 44896 44900 44904 44908 44912 44916 44920 44924 
44928 44932 44936 44940 44944 44948 44952 44956 44960 
44964 44968 44972 44976 44980 44984 44988 44992 44996 
45000 45004 45008 45012 45016 45020 45024 45028 45032 
45036 45040 45044 45048 45052 45056 45060 45064 45068 
45072 45076 45080 45084 45088 45092 45096 45100 45104 
45108 45112 45116 45120 45124 45128 45132 45136 45140 
45144 45148 45152 45156 45160 45164 45168 45172 45176 
45180 45184 45188 45192 45196 45200 45204 45208 45212 
45216 45220 45224 45228 45232 45236 45240 45244 45248 
45252 45256 45260 45264 45268 45272 45276 45280 45284 
45288 45292 45296 45300 45304 45308 45312 45316 45320 
45324 45328 45332 45336 45340 45344 45348 45352 45356 
45360 45364 45368 45372 45376 45380 45384 45388 45392 
45396 45400 45404 45408 45412 45416 45420 45424 45428 
45432 45436 45440 45444 45448 45452 45456 45460 45464 
45468 45472 45476 45480 45484 45488 45492 45496 45500 
45504 45508 45512 45516 45520 45524 45528 45532 45536 
45540 45544 45548 45552 45556 45560 45564 45568 45572 
45576 45580 45584 45588 45592 45596 45600 45604 45608 
45612 45616 45620 45624 45628 45632 45636 45640 45644 
45648 45652 45656 45660 45664 45668 45672 45676 45680 
45684 45688 45692 45696 45700 45704 45708 45712 45716 
45720 45724 45728 45732 45736 45740 45744 45748 45752 
45756 45760 45764 45768 45772 45776 45780 45784 45788 
45792 45796 45800 45804 45808 45812 45816 45820 45824 
45828 45832 45836 45840 45844 45848 45852 45856 45860 
45864 45868 45872 45876 45880 45884 45888 45892 45896 
45900 45904 45908 45912 45916 45920 45924 45928 45932 
45936 45940 45944 45948 45952 45956 45960 45964 45968 
45972 45976 45980 45984 45988 45992 45996 46000 46004 
46008 46012 46016 46020 46024 46028 46032 46036 46040 
46044 46048 46052 46056 46060 46064 46068 46072 46076 
46080 46084 46088 46092 46096 46100 46104 46108 46112 
46116 46120 46124 46128 46132 46136 46140 46144 46148 
46152 46156 46160 46164 46168 46172 46176 46180 46184 
46188 46192 46196 46200 46204 46208 46212 46216 46220 
46224 46228 46232 46236 46240 46244 46248 46252 46256 
46260 46264 46268 46272 46276 46280 46284 46288 46292 
46296 46300 46304 46308 46312 46316 46320 46324 46328 
46332 46336 46340 46344 46348 46352 46356 46360 46364 
46368 46372 46376 46380 46384 46388 46392 46396 46400 
46404 46408 46412 46416 46420 46424 46428 46432 46436 
46440 46444 46448 46452 46456 46460 46464 46468 46472 
46476 46480 46484 46488 46492 46496 46500 46504 46508 
46512 46516 46520 46524 46528 46532 46536 46540 46544 
46548 46552 46556 46560 46564 46568 46572 46576 46580 
46584 46588 46592 46596 46600 46604 46608 46612 46616 
46620 46624 46628 46632 46636 46640 46644 46648 46652 
46656 46660 46664 46668 46672 46676 46680 46684 46688 
46692 46696 46700 46704 46708 46712 46716 46720 46724 
46728 46732 46736 46740 46744 46748 46752 46756 46760 
46764 46768 46772 46776 46780 46784 46788 46792 46796 
46800 46804 46808 46812 46816 46820 46824 46828 46832 
46836 46840 46844 46848 46852 46856 46860 46864 46868 
46872 46876 46880 46884 46888 46892 46896 46900 46904 
46908 46912 46916 46920 46924 46928 46932 46936 46940 
46944 46948 46952 46956 46960 46964 46968 46972 46976 
46980 46984 46988 46992 46996 47000 47004 47008 47012 
47016 47020 47024 47028 47032 47036 47040 47044 47048 
47052 47056 47060 47064 47068 47072 47076 47080 47084 
47088 47092 47096 47100 47104 47108 47112 47116 47120 
47124 47128 47132 47136 47140 47144 47148 47152 47156 
47160 47164 47168 47172 47176 47180 47184 47188 47192 
47196 47200 47204 47208 47212 47216 47220 47224 47228 
47232 47236 47240 47244 47248 47252 47256 47260 47264 
47268 47272 47276 47280 47284 47288 47292 47296 47300 
47304 47308 47312 47316 47320 47324 47328 47332 47336 
47340 47344 47348 47352 47356 47360 47364 47368 47372 
47376 47380 47384 47388 47392 47396 47400 47404 47408 
47412 47416 47420 47424 47428 47432 47436 47440 47444 
47448 47452 47456 47460 47464 47468 47472 47476 47480 
47484 47488 47492 47496 47500 47504 47508 47512 47516 
47520 47524 47528 47532 47536 47540 47544 47548 47552 
47556 47560 47564 47568 47572 47576 47580 47584 47588 
47592 47596 47600 47604 47608 47612 47616 47620 47624 
47628 47632 47636 47640 47644 47648 47652 47656 47660 
47664 47668 47672 47676 47680 47684 47688 47692 47696 
47700 47704 47708 47712 47716 47720 47724 47728 47732 
47736 47740 47744 47748 47752 47756 47760 47764 47768 
47772 47776 47780 47784 47788 47792 47796 47800 47804 
47808 47812 47816 47820 47824 47828 47832 47836 47840 
47844 47848 47852 47856 47860 47864 47868 47872 47876 
47880 47884 47888 47892 47896 47900 47904 47908 47912 
47916 47920 47924 47928 47932 47936 47940 47944 47948 
47952 47956 47960 47964 47968 47972 47976 47980 47984 
47988 47992 47996 48000 48004 48008 48012 48016 48020 
48024 48028 48032 48036 48040 48044 48048 48052 48056 
48060 48064 48068 48072 48076 48080 48084 48088 48092 
48096 48100 48104 48108 48112 48116 48120 48124 48128 
48132 48136 48140 48144 48148 48152 48156 48160 48164 
48168 48172 48176 48180 48184 48188 48192 48196 48200 
48204 48208 48212 48216 48220 48224 48228 48232 48236 
48240 48244 48248 48252 48256 48260 48264 48268 48272 
48276 48280 48284 48288 48292 48296 48300 48304 48308 
48312 48316 48320 48324 48328 48332 48336 48340 48344 
48348 48352 48356 48360 48364 48368 48372 48376 48380 
48384 48388 48392 48396 48400 48404 48408 48412 48416 
48420 48424 48428 48432 48436 48440 48444 48448 48452 
48456 48460 48464 48468 48472 48476 48480 48484 48488 
48492 48496 48500 48504 48508 48512 48516 48520 48524 
48528 48532 48536 48540 48544 48548 48552 48556 48560 
48564 48568 48572 48576 48580 48584 48588 48592 48596 
48600 48604 48608 48612 48616 48620 48624 48628 48632 
48636 48640 48644 48648 48652 48656 48660 48664 48668 
48672 48676 48680 48684 48688 48692 48696 48700 48704 
48708 48712 48716 48720 48724 48728 48732 48736 48740 
48744 48748 48752 48756 48760 48764 48768 48772 48776 
48780 48784 48788 48792 48796 48800 48804 48808 48812 
48816 48820 48824 48828 48832 48836 48840 48844 48848 
48852 48856 48860 48864 48868 48872 48876 48880 48884 
48888 48892 48896 48900 48904 48908 48912 48916 48920 
48924 48928 48932 48936 48940 48944 48948 48952 48956 
48960 48964 48968 48972 48976 48980 48984 48988 48992 
48996 49000 49004 49008 49012 49016 49020 49024 49028 
49032 49036 49040 49044 49048 49052 49056 49060 49064 
49068 49072 49076 49080 49084 49088 49092 49096 49100 
49104 49108 49112 49116 49120 49124 49128 49132 49136 
49140 49144 49148 49152 49156 49160 49164 49168 49172 
49176 49180 49184 49188 49192 49196 49200 49204 49208 
49212 49216 49220 49224 49228 49232 49236 49240 49244 
49248 49252 49256 49260 49264 49268 49272 49276 49280 

CONNECTIVITY vtktypeint64
0 8 774 695 695 774 775 694 694 
775 776 693 693 776 777 692 692 777 
778 691 691 778 779 690 690 779 780 
689 689 780 781 688 688 781 782 687 
687 782 783 686 686 783 784 685 685 
784 785 684 684 785 786 683 683 786 
787 682 682 787 788 681 681 788 789 
680 680 789 790 679 679 790 791 678 
678 791 792 677 677 792 793 676 676 
793 794 675 675 794 795 674 674 795 
796 673 673 796 797 672 672 797 798 
671 671 798 799 670 670 799 800 669 
669 800 801 668 668 801 802 667 667 
802 803 666 666 803 804 665 665 804 
805 664 664 805 806 663 663 806 807 
662 662 807 808 661 661 808 809 660 
660 809 810 659 659 810 811 658 658 
811 812 657 657 812 656 7 8 9 
813 774 774 813 814 775 775 814 815 
776 776 815 816 777 777 816 817 778 
778 817 818 779 779 818 819 780 780 
819 820 781 781 820 821 782 782 821 
822 783 783 822 823 784 784 823 824 
785 785 824 825 786 786 825 826 787 
787 826 827 788 788 827 828 789 789 
828 829 790 790 829 830 791 791 830 
831 792 792 831 832 793 793 832 833 
794 794 833 834 795 795 834 835 796 
796 835 836 797 797 836 837 798 798 
837 838 799 799 838 839 800 800 839 
840 801 801 840 841 802 802 841 842 
803 803 842 843 804 804 843 844 805 
805 844 845 806 806 845 846 807 807 
846 847 808 808 847 848 809 809 848 
849 810 810 849 850 811 811 850 851 
812 812 851 655 656 9 10 852 813 
813 852 853 814 814 853 854 815 815 
854 855 816 816 855 856 817 817 856 
857 818 818 857 858 819 819 858 859 
820 820 859 860 821 821 860 861 822 
822 861 862 823 823 862 863 824 824 
863 864 825 825 864 865 826 826 865 
866 827 827 866 867 828 828 867 868 
829 829 868 869 830 830 869 870 831 
831 870 871 832 832 871 872 833 833 
872 873 834 834 873 874 835 835 874 
875 836 836 875 876 837 837 876 877 
838 838 877 878 839 839 878 879 840 
840 879 880 841 841 880 881 842 842 
881 882 843 843 882 883 844 844 883 
884 845 845 884 885 846 846 885 886 
847 847 886 887 848 848 887 888 849 
849 888 889 850 850 889 890 851 851 
890 654 655 10 11 891 852 852 891 
892 853 853 892 893 854 854 893 894 
855 855 894 895 856 856 895 896 857 
857 896 897 858 858 897 898 859 859 
898 899 860 860 899 900 861 861 900 
901 862 862 901 902 863 863 902 903 
864 864 903 904 865 865 904 905 866 
866 905 906 867 867 906 907 868 868 
907 908 869 869 908 909 870 870 909 
910 871 871 910 911 872 872 911 912 
873 873 912 913 874 874 913 914 875 
875 914 915 876 876 915 916 877 877 
916 917 878 878 917 918 879 879 918 
919 880 880 919 920 881 881 920 921 
882 882 921 922 883 883 922 923 884 
884 923 924 885 885 924 925 886 886 
925 926 887 887 926 927 888 888 927 
928 889 889 928 929 890 890 929 653 
654 11 12 930 891 891 930 931 892 
892 931 932 893 893 932 933 894 894 
933 934 895 895 934 935 896 896 935 
936 897 897 936 937 898 898 937 938 
899 899 938 939 900 900 939 940 901 
901 940 941 902 902 941 942 903 903 
942 943 904 904 943 944 905 905 944 
945 906 906 945 946 907 907 946 947 
908 908 947 948 909 909 948 949 910 
910 949 950 911 911 950 951 912 912 
951 952 913 913 952 953 914 914 953 
954 915 915 954 955 916 916 955 956 
917 917 956 957 918 918 957 958 919 
919 958 959 920 920 959 960 921 921 
960 961 922 922 961 962 923 923 962 
963 924 924 963 964 925 925 964 965 
926 926 965 966 927 927 966 967 928 
928 967 968 929 929 968 652 653 12 
13 969 930 930 969 970 931 931 970 
971 932 932 971 972 933 933 972 973 
934 934 973 974 935 935 974 975 936 
936 975 976 937 937 976 977 938 938 
977 978 939 939 978 979 940 940 979 
980 941 941 980 981 942 942 981 982 
943 943 982 983 944 944 983 984 945 
945 984 985 946 946 985 986 947 947 
986 987 948 948 987 988 949 949 988 
989 950 950 989 990 951 951 990 991 
952 952 991 992 953 953 992 993 954 
954 993 994 955 955 994 995 956 956 
995 996 957 957 996 997 958 958 997 
998 959 959 998 999 960 960 999 1000 
961 961 1000 1001 962 962 1001 1002 963 
963 1002 1003 964 964 1003 1004 965 965 
1004 1005 966 966 1005 1006 967 967 1006 
1007 968 968 1007 651 652 13 14 1008 
969 969 1008 1009 970 970 1009 1010 971 
971 1010 1011 972 972 1011 1012 973 973 
1012 1013 974 974 1013 1014 975 975 1014 
1015 976 976 1015 1016 977 977 1016 1017 
978 978 1017 1018 979 979 1018 1019 980 
980 1019 1020 981 981 1020 1021 982 982 
1021 1022 983 983 1022 1023 984 984 1023 
1024 985 985 1024 1025 986 986 1025 1026 
987 987 1026 1027 988 988 1027 1028 989 
989 1028 1029 990 990 1029 1030 991 991 
1030 1031 992 992 1031 1032 993 993 1032 
1033 994 994 1033 1034 995 995 1034 1035 
996 996 1035 1036 997 997 1036 1037 998 
998 1037 1038 999 999 1038 1039 1000 1000 
1039 1040 1001 1001 1040 1041 1002 1002 1041 
1042 1003 1003 1042 1043 1004 1004 1043 1044 
1005 1005 1044 1045 1006 1006 1045 1046 1007 
1007 1046 650 651 14 15 1047 1008 1008 
1047 1048 1009 1009 1048 1049 1010 1010 1049 
1050 1011 1011 1050 1051 1012 1012 1051 1052 
1013 1013 1052 1053 1014 1014 1053 1054 1015 
1015 1054 1055 1016 1016 1055 1056 1017 1017 
1056 1057 1018 1018 1057 1058 1019 1019 1058 
1059 1020 1020 1059 1060 1021 1021 1060 1061 
1022 1022 1061 1062 1023 1023 1062 1063 1024 
1024 1063 1064 1025 1025 1064 1065 1026 1026 
1065 1066 1027 1027 1066 1067 1028 1028 1067 
1068 1029 1029 1068 1069 1030 1030 1069 1070 
1031 1031 1070 1071 1032 1032 1071 1072 1033 
1033 1072 1073 1034 1034 1073 1074 1035 1035 
1074 1075 1036 1036 1075 1076 1037 1037 1076 
1077 1038 1038 1077 1078 1039 1039 1078 1079 
1040 1040 1079 1080 1041 1041 1080 1081 1042 
1042 1081 1082 1043 1043 1082 1083 1044 1044 
1083 1084 1045 1045 1084 1085 1046 1046 1085 
649 650 15 16 1086 1047 1047 1086 1087 
1048 1048 1087 1088 1049 1049 1088 1089 1050 
1050 1089 1090 1051 1051 1090 1091 1052 1052 
1091 1092 1053 1053 1092 1093 1054 1054 1093 
1094 1055 1055 1094 1095 1056 1056 1095 1096 
1057 1057 1096 1097 1058 1058 1097 1098 1059 
1059 1098 1099 1060 1060 1099 1100 1061 1061 
1100 1101 1062 1062 1101 1102 1063 1063 1102 
1103 1064 1064 1103 1104 1065 1065 1104 1105 
1066 1066 1105 1106 1067 1067 1106 1107 1068 
1068 1107 1108 1069 1069 1108 1109 1070 1070 
1109 1110 1071 1071 1110 1111 1072 1072 1111 
1112 1073 1073 1112 1113 1074 1074 1113 1114 
1075 1075 1114 1115 1076 1076 1115 1116 1077 
1077 1116 1117 1078 1078 1117 1118 1079 1079 
1118 1119 1080 1080 1119 1120 1081 1081 1120 
1121 1082 1082 1121 1122 1083 1083 1122 1123 
1084 1084 1123 1124 1085 1085 1124 648 649 
16 17 1125 1086 1086 1125 1126 1087 1087 
1126 1127 1088 1088 1127 1128 1089 1089 1128 
1129 1090 1090 1129 1130 1091 1091 1130 1131 
1092 1092 1131 1132 1093 1093 1132 1133 1094 
1094 1133 1134 1095 1095 1134 1135 1096 1096 
1135 1136 1097 1097 1136 1137 1098 1098 1137 
1138 1099 1099 1138 1139 1100 1100 1139 1140 
1101 1101 1140 1141 1102 1102 1141 1142 1103 
1103 1142 1143 1104 1104 1143 1144 1105 1105 
1144 1145 1106 1106 1145 1146 1107 1107 1146 
1147 1108 1108 1147 1148 1109 1109 1148 1149 
1110 1110 1149 1150 1111 1111 1150 1151 1112 
1112 1151 1152 1113 1113 1152 1153 1114 1114 
1153 1154 1115 1115 1154 1155 1116 1116 1155 
1156 1117 1117 1156 1157 1118 1118 1157 1158 
1119 1119 1158 1159 1120 1120 1159 1160 1121 
1121 1160 1161 1122 1122 1161 1162 1123 1123 
1162 1163 1124 1124 1163 647 648 17 18 
1164 1125 1125 1164 1165 1126 1126 1165 1166 
1127 1127 1166 1167 1128 1128 1167 1168 1129 
1129 1168 1169 1130 1130 1169 1170 1131 1131 
1170 1171 1132 1132 1171 1172 1133 1133 1172 
1173 1134 1134 1173 1174 1135 1135 1174 1175 
1136 1136 1175 1176 1137 1137 1176 1177 1138 
1138 1177 1178 1139 1139 1178 1179 1140 1140 
1179 1180 1141 1141 1180 1181 1142 1142 1181 
1182 1143 1143 1182 1183 1144 1144 1183 1184 
1145 1145 1184 1185 1146 1146 1185 1186 1147 
1147 1186 1187 1148 1148 1187 1188 1149 1149 
1188 1189 1150 1150 1189 1190 1151 1151 1190 
1191 1152 1152 1191 1192 1153 1153 1192 1193 
1154 1154 1193 1194 1155 1155 1194 1195 1156 
1156 1195 1196 1157 1157 1196 1197 1158 1158 
1197 1198 1159 1159 1198 1199 1160 1160 1199 
1200 1161 1161 1200 1201 1162 1162 1201 1202 
1163 1163 1202 646 647 18 19 1203 1164 
1164 1203 1204 1165 1165 1204 1205 1166 1166 
1205 1206 1167 1167 1206 1207 1168 1168 1207 
1208 1169 1169 1208 1209 1170 1170 1209 1210 
1171 1171 1210 1211 1172 1172 1211 1212 1173 
1173 1212 1213 1174 1174 1213 1214 1175 1175 
1214 1215 1176 1176 1215 1216 1177 1177 1216 
1217 1178 1178 1217 1218 1179 1179 1218 1219 
1180 1180 1219 1220 1181 1181 1220 1221 1182 
1182 1221 1222 1183 1183 1222 1223 1184 1184 
1223 1224 1185 1185 1224 1225 1186 1186 1225 
1226 1187 1187 1226 1227 1188 1188 1227 1228 
1189 1189 1228 1229 1190 1190 1229 1230 1191 
1191 1230 1231 1192 1192 1231 1232 1193 1193 
1232 1233 1194 1194 1233 1234 1195 1195 1234 
1235 1196 1196 1235 1236 1197 1197 1236 1237 
1198 1198 1237 1238 1199 1199 1238 1239 1200 
1200 1239 1240 1201 1201 1240 1241 1202 1202 
1241 645 646 19 20 1242 1203 1203 1242 
1243 1204 1204 1243 1244 1205 1205 1244 1245 
1206 1206 1245 1246 1207 1207 1246 1247 1208 
1208 1247 1248 1209 1209 1248 1249 1210 1210 
1249 1250 1211 1211 1250 1251 1212 1212 1251 
1252 1213 1213 1252 1253 1214 1214 1253 1254 
1215 1215 1254 1255 1216 1216 1255 1256 1217 
1217 1256 1257 1218 1218 1257 1258 1219 1219 
1258 1259 1220 1220 1259 1260 1221 1221 1260 
1261 1222 1222 1261 1262 1223 1223 1262 1263 
1224 1224 1263 1264 1225 1225 1264 1265 1226 
1226 1265 1266 1227 1227 1266 1267 1228 1228 
1267 1268 1229 1229 1268 1269 1230 1230 1269 
1270 1231 1231 1270 1271 1232 1232 1271 1272 
1233 1233 1272 1273 1234 1234 1273 1274 1235 
1235 1274 1275 1236 1236 1275 1276 1237 1237 
1276 1277 1238 1238 1277 1278 1239 1239 1278 
1279 1240 1240 1279 1280 1241 1241 1280 644 
645 20 21 1281 1242 1242 1281 1282 1243 
1243 1282 1283 1244 1244 1283 1284 1245 1245 
1284 1285 1246 1246 1285 1286 1247 1247 1286 
1287 1248 1248 1287 1288 1249 1249 1288 1289 
1250 1250 1289 1290 1251 1251 1290 1291 1252 
1252 1291 1292 1253 1253 1292 1293 1254 1254 
1293 1294 1255 1255 1294 1295 1256 1256 1295 
1296 1257 1257 1296 1297 1258 1258 1297 1298 
1259 1259 1298 1299 1260 1260 1299 1300 1261 
1261 1300 1301 1262 1262 1301 1302 1263 1263 
1302 1303 1264 1264 1303 1304 1265 1265 1304 
1305 1266 1266 1305 1306 1267 1267 1306 1307 
1268 1268 1307 1308 1269 1269 1308 1309 1270 
1270 1309 1310 1271 1271 1310 1311 1272 1272 
1311 1312 1273 1273 1312 1313 1274 1274 1313 
1314 1275 1275 1314 1315 1276 1276 1315 1316 
1277 1277 1316 1317 1278 1278 1317 1318 1279 
1279 1318 1319 1280 1280 1319 643 644 21 
22 1320 1281 1281 1320 1321 1282 1282 1321 
1322 1283 1283 1322 1323 1284 1284 1323 1324 
1285 1285 1324 1325 1286 1286 1325 1326 1287 
1287 1326 1327 1288 1288 1327 1328 1289 1289 
1328 1329 1290 1290 1329 1330 1291 1291 1330 
1331 1292 1292 1331 1332 1293 1293 1332 1333 
1294 1294 1333 1334 1295 1295 1334 1335 1296 
1296 1335 1336 1297 1297 1336 1337 1298 1298 
1337 1338 1299 1299 1338 1339 1300 1300 1339 
1340 1301 1301 1340 1341 1302 1302 1341 1342 
1303 1303 1342 1343 1304 1304 1343 1344 1305 
1305 1344 1345 1306 1306 1345 1346 1307 1307 
1346 1347 1308 1308 1347 1348 1309 1309 1348 
1349 1310 1310 1349 1350 1311 1311 1350 1351 
1312 1312 1351 1352 1313 1313 1352 1353 1314 
1314 1353 1354 1315 1315 1354 1355 1316 1316 
1355 1356 1317 1317 1356 1357 1318 1318 1357 
1358 1319 1319 1358 642 643 22 23 1359 
1320 1320 1359 1360 1321 1321 1360 1361 1322 
1322 1361 1362 1323 1323 1362 1363 1324 1324 
1363 1364 1325 1325 1364 1365 1326 1326 1365 
1366 1327 1327 1366 1367 1328 1328 1367 1368 
1329 1329 1368 1369 1330 1330 1369 1370 1331 
1331 1370 1371 1332 1332 1371 1372 1333 1333 
1372 1373 1334 1334 1373 1374 1335 1335 1374 
1375 1336 1336 1375 1376 1337 1337 1376 1377 
1338 1338 1377 1378 1339 1339 1378 1379 1340 
1340 1379 1380 1341 1341 1380 1381 1342 1342 
1381 1382 1343 1343 1382 1383 1344 1344 1383 
1384 1345 1345 1384 1385 1346 1346 1385 1386 
1347 1347 1386 1387 1348 1348 1387 1388 1349 
1349 1388 1389 1350 1350 1389 1390 1351 1351 
1390 1391 1352 1352 1391 1392 1353 1353 1392 
1393 1354 1354 1393 1394 1355 1355 1394 1395 
1356 1356 1395 1396 1357 1357 1396 1397 1358 
1358 1397 641 642 23 24 1398 1359 1359 
1398 1399 1360 1360 1399 1400 1361 1361 1400 
1401 1362 1362 1401 1402 1363 1363 1402 1403 
1364 1364 1403 1404 1365 1365 1404 1405 1366 
1366 1405 1406 1367 1367 1406 1407 1368 1368 
1407 1408 1369 1369 1408 1409 1370 1370 1409 
1410 1371 1371 1410 1411 1372 1372 1411 1412 
1373 1373 1412 1413 1374 1374 1413 1414 1375 
1375 1414 1415 1376 1376 1415 1416 1377 1377 
1416 1417 1378 1378 1417 1418 1379 1379 1418 
1419 1380 1380 1419 1420 1381 1381 1420 1421 
1382 1382 1421 1422 1383 1383 1422 1423 1384 
1384 1423 1424 1385 1385 1424 1425 1386 1386 
1425 1426 1387 1387 1426 1427 1388 1388 1427 
1428 1389 1389 1428 1429 1390 1390 1429 1430 
1391 1391 1430 1431 1392 1392 1431 1432 1393 
1393 1432 1433 1394 1394 1433 1434 1395 1395 
1434 1435 1396 1396 1435 1436 1397 1397 1436 
640 641 24 25 1437 1398 1398 1437 1438 
1399 1399 1438 1439 1400 1400 1439 1440 1401 
1401 1440 1441 1402 1402 1441 1442 1403 1403 
1442 1443 1404 1404 1443 1444 1405 1405 1444 
1445 1406 1406 1445 1446 1407 1407 1446 1447 
1408 1408 1447 1448 1409 1409 1448 1449 1410 
1410 1449 1450 1411 1411 1450 1451 1412 1412 
1451 1452 1413 1413 1452 1453 1414 1414 1453 
1454 1415 1415 1454 1455 1416 1416 1455 1456 
1417 1417 1456 1457 1418 1418 1457 1458 1419 
1419 1458 1459 1420 1420 1459 1460 1421 1421 
1460 1461 1422 1422 1461 1462 1423 1423 1462 
1463 1424 1424 1463 1464 1425 1425 1464 1465 
1426 1426 1465 1466 1427 1427 1466 1467 1428 
1428 1467 1468 1429 1429 1468 1469 1430 1430 
1469 1470 1431 1431 1470 1471 1432 1432 1471 
1472 1433 1433 1472 1473 1434 1434 1473 1474 
1435 1435 1474 1475 1436 1436 1475 639 640 
25 26 1476 1437 1437 1476 1477 1438 1438 
1477 1478 1439 1439 1478 1479 1440 1440 1479 
1480 1441 1441 1480 1481 1442 1442 1481 1482 
1443 1443 1482 1483 1444 1444 1483 1484 1445 
1445 1484 1485 1446 1446 1485 1486 1447 1447 
1486 1487 1448 1448 1487 1488 1449 1449 1488 
1489 1450 1450 1489 1490 1451 1451 1490 1491 
1452 1452 1491 1492 1453 1453 1492 1493 1454 
1454 1493 1494 1455 1455 1494 1495 1456 1456 
1495 1496 1457 1457 1496 1497 1458 1458 1497 
1498 1459 1459 1498 1499 1460 1460 1499 1500 
1461 1461 1500 1501 1462 1462 1501 1502 1463 
1463 1502 1503 1464 1464 1503 1504 1465 1465 
1504 1505 1466 1466 1505 1506 1467 1467 1506 
1507 1468 1468 1507 1508 1469 1469 1508 1509 
1470 1470 1509 1510 1471 1471 1510 1511 1472 
1472 1511 1512 1473 1473 1512 1513 1474 1474 
1513 1514 1475 1475 1514 638 639 26 27 
1515 1476 1476 1515 1516 1477 1477 1516 1517 
1478 1478 1517 1518 1479 1479 1518 1519 1480 
1480 1519 1520 1481 1481 1520 1521 1482 1482 
1521 1522 1483 1483 1522 1523 1484 1484 1523 
1524 1485 1485 1524 1525 1486 1486 1525 1526 
1487 1487 1526 1527 1488 1488 1527 1528 1489 
1489 1528 1529 1490 1490 1529 1530 1491 1491 
1530 1531 1492 1492 1531 1532 1493 1493 1532 
1533 1494 1494 1533 1534 1495 1495 1534 1535 
1496 1496 1535 1536 1497 1497 1536 1537 1498 
1498 1537 1538 1499 1499 1538 1539 1500 1500 
1539 1540 1501 1501 1540 1541 1502 1502 1541 
1542 1503 1503 1542 1543 1504 1504 1543 1544 
1505 1505 1544 1545 1506 1506 1545 1546 1507 
1507 1546 1547 1508 1508 1547 1548 1509 1509 
1548 1549 1510 1510 1549 1550 1511 1511 1550 
1551 1512 1512 1551 1552 1513 1513 1552 1553 
1514 1514 1553 637 638 27 28 1554 1515 
1515 1554 1555 1516 1516 1555 1556 1517 1517 
1556 1557 1518 1518 1557 1558 1519 1519 1558 
1559 1520 1520 1559 1560 1521 1521 1560 1561 
1522 1522 1561 1562 1523 1523 1562 1563 1524 
1524 1563 1564 1525 1525 1564 1565 1526 1526 
1565 1566 1527 1527 1566 1567 1528 1528 1567 
1568 1529 1529 1568 1569 1530 1530 1569 1570 
1531 1531 1570 1571 1532 1532 1571 1572 1533 
1533 1572 1573 1534 1534 1573 1574 1535 1535 
1574 1575 1536 1536 1575 1576 1537 1537 1576 
1577 1538 1538 1577 1578 1539 1539 1578 1579 
1540 1540 1579 1580 1541 1541 1580 1581 1542 
1542 1581 1582 1543 1543 1582 1583 1544 1544 
1583 1584 1545 1545 1584 1585 1546 1546 1585 
1586 1547 1547 1586 1587 1548 1548 1587 1588 
1549 1549 1588 1589 1550 1550 1589 1590 1551 
1551 1590 1591 1552 1552 1591 1592 1553 1553 
1592 636 637 28 29 1593 1554 1554 1593 
1594 1555 1555 1594 1595 1556 1556 1595 1596 
1557 1557 1596 1597 1558 1558 1597 1598 1559 
1559 1598 1599 1560 1560 1599 1600 1561 1561 
1600 1601 1562 1562 1601 1602 1563 1563 1602 
1603 1564 1564 1603 1604 1565 1565 1604 1605 
1566 1566 1605 1606 1567 1567 1606 1607 1568 
1568 1607 1608 1569 1569 1608 1609 1570 1570 
1609 1610 1571 1571 1610 1611 1572 1572 1611 
1612 1573 1573 1612 1613 1574 1574 1613 1614 
1575 1575 1614 1615 1576 1576 1615 1616 1577 
1577 1616 1617 1578 1578 1617 1618 1579 1579 
1618 1619 1580 1580 1619 1620 1581 1581 1620 
1621 1582 1582 1621 1622 1583 1583 1622 1623 
1584 1584 1623 1624 1585 1585 1624 1625 1586 
1586 1625 1626 1587 1587 1626 1627 1588 1588 
1627 1628 1589 1589 1628 1629 1590 1590 1629 
1630 1591 1591 1630 1631 1592 1592 1631 635 
636 29 30 1632 1593 1593 1632 1633 1594 
1594 1633 1634 1595 1595 1634 1635 1596 1596 
1635 1636 1597 1597 1636 1637 1598 1598 1637 
1638 1599 1599 1638 1639 1600 1600 1639 1640 
1601 1601 1640 1641 1602 1602 1641 1642 1603 
1603 1642 1643 1604 1604 1643 1644 1605 1605 
1644 1645 1606 1606 1645 1646 1607 1607 1646 
1647 1608 1608 1647 1648 1609 1609 1648 1649 
1610 1610 1649 1650 1611 1611 1650 1651 1612 
1612 1651 1652 1613 1613 1652 1653 1614 1614 
1653 1654 1615 1615 1654 1655 1616 1616 1655 
1656 1617 1617 1656 1657 1618 1618 1657 1658 
1619 1619 1658 1659 1620 1620 1659 1660 1621 
1621 1660 1661 1622 1622 1661 1662 1623 1623 
1662 1663 1624 1624 1663 1664 1625 1625 1664 
1665 1626 1626 1665 1666 1627 1627 1666 1667 
1628 1628 1667 1668 1629 1629 1668 1669 1630 
1630 1669 1670 1631 1631 1670 634 635 30 
31 1671 1632 1632 1671 1672 1633 1633 1672 
1673 1634 1634 1673 1674 1635 1635 1674 1675 
1636 1636 1675 1676 1637 1637 1676 1677 1638 
1638 1677 1678 1639 1639 1678 1679 1640 1640 
1679 1680 1641 1641 1680 1681 1642 1642 1681 
1682 1643 1643 1682 1683 1644 1644 1683 1684 
1645 1645 1684 1685 1646 1646 1685 1686 1647 
1647 1686 1687 1648 1648 1687 1688 1649 1649 
1688 1689 1650 1650 1689 1690 1651 1651 1690 
1691 1652 1652 1691 1692 1653 1653 1692 1693 
1654 1654 1693 1694 1655 1655 1694 1695 1656 
1656 1695 1696 1657 1657 1696 1697 1658 1658 
1697 1698 1659 1659 1698 1699 1660 1660 1699 
1700 1661 1661 1700 1701 1662 1662 1701 1702 
1663 1663 1702 1703 1664 1664 1703 1704 1665 
1665 1704 1705 1666 1666 1705 1706 1667 1667 
1706 1707 1668 1668 1707 1708 1669 1669 1708 
1709 1670 1670 1709 633 634 31 32 1710 
1671 1671 1710 1711 1672 1672 1711 1712 1673 
1673 1712 1713 1674 1674 1713 1714 1675 1675 
1714 1715 1676 1676 1715 1716 1677 1677 1716 
1717 1678 1678 1717 1718 1679 1679 1718 1719 
1680 1680 1719 1720 1681 1681 1720 1721 1682 
1682 1721 1722 1683 1683 1722 1723 1684 1684 
1723 1724 1685 1685 1724 1725 1686 1686 1725 
1726 1687 1687 1726 1727 1688 1688 1727 1728 
1689 1689 1728 1729 1690 1690 1729 1730 1691 
1691 1730 1731 1692 1692 1731 1732 1693 1693 
1732 1733 1694 1694 1733 1734 1695 1695 1734 
1735 1696 1696 1735 1736 1697 1697 1736 1737 
1698 1698 1737 1738 1699 1699 1738 1739 1700 
1700 1739 1740 1701 1701 1740 1741 1702 1702 
1741 1742 1703 1703 1742 1743 1704 1704 1743 
1744 1705 1705 1744 1745 1706 1706 1745 1746 
1707 1707 1746 1747 1708 1708 1747 1748 1709 
1709 1748 632 633 32 33 1749 1710 1710 
1749 1750 1711 1711 1750 1751 1712 1712 1751 
1752 1713 1713 1752 1753 1714 1714 1753 1754 
1715 1715 1754 1755 1716 1716 1755 1756 1717 
1717 1756 1757 1718 1718 1757 1758 1719 1719 
1758 1759 1720 1720 1759 1760 1721 1721 1760 
1761 1722 1722 1761 1762 1723 1723 1762 1763 
1724 1724 1763 1764 1725 1725 1764 1765 1726 
1726 1765 1766 1727 1727 1766 1767 1728 1728 
1767 1768 1729 1729 1768 1769 1730 1730 1769 
1770 1731 1731 1770 1771 1732 1732 1771 1772 
1733 1733 1772 1773 1734 1734 1773 1774 1735 
1735 1774 1775 1736 1736 1775 1776 1737 1737 
1776 1777 1738 1738 1777 1778 1739 1739 1778 
1779 1740 1740 1779 1780 1741 1741 1780 1781 
1742 1742 1781 1782 1743 1743 1782 1783 1744 
1744 1783 1784 1745 1745 1784 1785 1746 1746 
1785 1786 1747 1747 1786 1787 1748 1748 1787 
631 632 33 34 1788 1749 1749 1788 1789 
1750 1750 1789 1790 1751 1751 1790 1791 1752 
1752 1791 1792 1753 1753 1792 1793 1754 1754 
1793 1794 1755 1755 1794 1795 1756 1756 1795 
1796 1757 1757 1796 1797 1758 1758 1797 1798 
1759 1759 1798 1799 1760 1760 1799 1800 1761 
1761 1800 1801 1762 1762 1801 1802 1763 1763 
1802 1803 1764 1764 1803 1804 1765 1765 1804 
1805 1766 1766 1805 1806 1767 1767 1806 1807 
1768 1768 1807 1808 1769 1769 1808 1809 1770 
1770 1809 1810 1771 1771 1810 1811 1772 1772 
1811 1812 1773 1773 1812 1813 1774 1774 1813 
1814 1775 1775 1814 1815 1776 1776 1815 1816 
1777 1777 1816 1817 1778 1778 1817 1818 1779 
1779 1818 1819 1780 1780 1819 1820 1781 1781 
1820 1821 1782 1782 1821 1822 1783 1783 1822 
1823 1784 1784 1823 1824 1785 1785 1824 1825 
1786 1786 1825 1826 1787 1787 1826 630 631 
34 35 1827 1788 1788 1827 1828 1789 1789 
1828 1829 1790 1790 1829 1830 1791 1791 1830 
1831 1792 1792 1831 1832 1793 1793 1832 1833 
1794 1794 1833 1834 1795 1795 1834 1835 1796 
1796 1835 1836 1797 1797 1836 1837 1798 1798 
1837 1838 1799 1799 1838 1839 1800 1800 1839 
1840 1801 1801 1840 1841 1802 1802 1841 1842 
1803 1803 1842 1843 1804 1804 1843 1844 1805 
1805 1844 1845 1806 1806 1845 1846 1807 1807 
1846 1847 1808 1808 1847 1848 1809 1809 1848 
1849 1810 1810 1849 1850 1811 1811 1850 1851 
1812 1812 1851 1852 1813 1813 1852 1853 1814 
1814 1853 1854 1815 1815 1854 1855 1816 1816 
1855 1856 1817 1817 1856 1857 1818 1818 1857 
1858 1819 1819 1858 1859 1820 1820 1859 1860 
1821 1821 1860 1861 1822 1822 1861 1862 1823 
1823 1862 1863 1824 1824 1863 1864 1825 1825 
1864 1865 1826 1826 1865 629 630 35 36 
1866 1827 1827 1866 1867 1828 1828 1867 1868 
1829 1829 1868 1869 1830 1830 1869 1870 1831 
1831 1870 1871 1832 1832 1871 1872 1833 1833 
1872 1873 1834 1834 1873 1874 1835 1835 1874 
1875 1836 1836 1875 1876 1837 1837 1876 1877 
1838 1838 1877 1878 1839 1839 1878 1879 1840 
1840 1879 1880 1841 1841 1880 1881 1842 1842 
1881 1882 1843 1843 1882 1883 1844 1844 1883 
1884 1845 1845 1884 1885 1846 1846 1885 1886 
1847 1847 1886 1887 1848 1848 1887 1888 1849 
1849 1888 1889 1850 1850 1889 1890 1851 1851 
1890 1891 1852 1852 1891 1892 1853 1853 1892 
1893 1854 1854 1893 1894 1855 1855 1894 1895 
1856 1856 1895 1896 1857 1857 1896 1897 1858 
1858 1897 1898 1859 1859 1898 1899 1860 1860 
1899 1900 1861 1861 1900 1901 1862 1862 1901 
1902 1863 1863 1902 1903 1864 1864 1903 1904 
1865 1865 1904 628 629 36 37 1905 1866 
1866 1905 1906 1867 1867 1906 1907 1868 1868 
1907 1908 1869 1869 1908 1909 1870 1870 1909 
1910 1871 1871 1910 1911 1872 1872 1911 1912 
1873 1873 1912 1913 1874 1874 1913 1914 1875 
1875 1914 1915 1876 1876 1915 1916 1877 1877 
1916 1917 1878 1878 1917 1918 1879 1879 1918 
1919 1880 1880 1919 1920 1881 1881 1920 1921 
1882 1882 1921 1922 1883 1883 1922 1923 1884 
1884 1923 1924 1885 1885 1924 1925 1886 1886 
1925 1926 1887 1887 1926 1927 1888 1888 1927 
1928 1889 1889 1928 1929 1890 1890 1929 1930 
1891 1891 1930 1931 1892 1892 1931 1932 1893 
1893 1932 1933 1894 1894 1933 1934 1895 1895 
1934 1935 1896 1896 1935 1936 1897 1897 1936 
1937 1898 1898 1937 1938 1899 1899 1938 1939 
1900 1900 1939 1940 1901 1901 1940 1941 1902 
1902 1941 1942 1903 1903 1942 1943 1904 1904 
1943 627 628 37 38 1944 1905 1905 1944 
1945 1906 1906 1945 1946 1907 1907 1946 1947 
1908 1908 1947 1948 1909 1909 1948 1949 1910 
1910 1949 1950 1911 1911 1950 1951 1912 1912 
1951 1952 1913 1913 1952 1953 1914 1914 1953 
1954 1915 1915 1954 1955 1916 1916 1955 1956 
1917 1917 1956 1957 1918 1918 1957 1958 1919 
1919 1958 1959 1920 1920 1959 1960 1921 1921 
1960 1961 1922 1922 1961 1962 1923 1923 1962 
1963 1924 1924 1963 1964 1925 1925 1964 1965 
1926 1926 1965 1966 1927 1927 1966 1967 1928 
1928 1967 1968 1929 1929 1968 1969 1930 1930 
1969 1970 1931 1931 1970 1971 1932 1932 1971 
1972 1933 1933 1972 1973 1934 1934 1973 1974 
1935 1935 1974 1975 1936 1936 1975 1976 1937 
1937 1976 1977 1938 1938 1977 1978 1939 1939 
1978 1979 1940 1940 1979 1980 1941 1941 1980 
1981 1942 1942 1981 1982 1943 1943 1982 626 
627 38 39 1983 1944 1944 1983 1984 1945 
1945 1984 1985 1946 1946 1985 1986 1947 1947 
1986 1987 1948 1948 1987 1988 1949 1949 1988 
1989 1950 1950 1989 1990 1951 1951 1990 1991 
1952 1952 1991 1992 1953 1953 1992 1993 1954 
1954 1993 1994 1955 1955 1994 1995 1956 1956 
1995 1996 1957 1957 1996 1997 1958 1958 1997 
1998 1959 1959 1998 1999 1960 1960 1999 2000 
1961 1961 2000 2001 1962 1962 2001 2002 1963 
1963 2002 2003 1964 1964 2003 2004 1965 1965 
2004 2005 1966 1966 2005 2006 1967 1967 2006 
2007 1968 1968 2007 2008 1969 1969 2008 2009 
1970 1970 2009 2010 1971 1971 2010 2011 1972 
1972 2011 2012 1973 1973 2012 2013 1974 1974 
2013 2014 1975 1975 2014 2015 1976 1976 2015 
2016 1977 1977 2016 2017 1978 1978 2017 2018 
1979 1979 2018 2019 1980 1980 2019 2020 1981 
1981 2020 2021 1982 1982 2021 625 626 39 
40 2022 1983 1983 2022 2023 1984 1984 2023 
2024 1985 1985 2024 2025 1986 1986 2025 2026 
1987 1987 2026 2027 1988 1988 2027 2028 1989 
1989 2028 2029 1990 1990 2029 2030 1991 1991 
2030 2031 1992 1992 2031 2032 1993 1993 2032 
2033 1994 1994 2033 2034 1995 1995 2034 2035 
1996 1996 2035 2036 1997 1997 2036 2037 1998 
1998 2037 2038 1999 1999 2038 2039 2000 2000 
2039 2040 2001 2001 2040 2041 2002 2002 2041 
2042 2003 2003 2042 2043 2004 2004 2043 2044 
2005 2005 2044 2045 2006 2006 2045 2046 2007 
2007 2046 2047 2008 2008 2047 2048 2009 2009 
2048 2049 2010 2010 2049 2050 2011 2011 2050 
2051 2012 2012 2051 2052 2013 2013 2052 2053 
2014 2014 2053 2054 2015 2015 2054 2055 2016 
2016 2055 2056 2017 2017 2056 2057 2018 2018 
2057 2058 2019 2019 2058 2059 2020 2020 2059 
2060 2021 2021 2060 624 625 40 41 2061 
2022 2022 2061 2062 2023 2023 2062 2063 2024 
2024 2063 2064 2025 2025 2064 2065 2026 2026 
2065 2066 2027 2027 2066 2067 2028 2028 2067 
2068 2029 2029 2068 2069 2030 2030 2069 2070 
2031 2031 2070 2071 2032 2032 2071 2072 2033 
2033 2072 2073 2034 2034 2073 2074 2035 2035 
2074 2075 2036 2036 2075 2076 2037 2037 2076 
2077 2038 2038 2077 2078 2039 2039 2078 2079 
2040 2040 2079 2080 2041 2041 2080 2081 2042 
2042 2081 2082 2043 2043 2082 2083 2044 2044 
2083 2084 2045 2045 2084 2085 2046 2046 2085 
2086 2047 2047 2086 2087 2048 2048 2087 2088 
2049 2049 2088 2089 2050 2050 2089 2090 2051 
2051 2090 2091 2052 2052 2091 2092 2053 2053 
2092 2093 2054 2054 2093 2094 2055 2055 2094 
2095 2056 2056 2095 2096 2057 2057 2096 2097 
2058 2058 2097 2098 2059 2059 2098 2099 2060 
2060 2099 623 624 41 42 2100 2061 2061 
2100 2101 2062 2062 2101 2102 2063 2063 2102 
2103 2064 2064 2103 2104 2065 2065 2104 2105 
2066 2066 2105 2106 2067 2067 2106 2107 2068 
2068 2107 2108 2069 2069 2108 2109 2070 2070 
2109 2110 2071 2071 2110 2111 2072 2072 2111 
2112 2073 2073 2112 2113 2074 2074 2113 2114 
2075 2075 2114 2115 2076 2076 2115 2116 2077 
2077 2116 2117 2078 2078 2117 2118 2079 2079 
2118 2119 2080 2080 2119 2120 2081 2081 2120 
2121 2082 2082 2121 2122 2083 2083 2122 2123 
2084 2084 2123 2124 2085 2085 2124 2125 2086 
2086 2125 2126 2087 2087 2126 2127 2088 2088 
2127 2128 2089 2089 2128 2129 2090 2090 2129 
2130 2091 2091 2130 2131 2092 2092 2131 2132 
2093 2093 2132 2133 2094 2094 2133 2134 2095 
2095 2134 2135 2096 2096 2135 2136 2097 2097 
2136 2137 2098 2098 2137 2138 2099 2099 2138 
622 623 42 43 2139 2100 2100 2139 2140 
2101 2101 2140 2141 2102 2102 2141 2142 2103 
2103 2142 2143 2104 2104 2143 2144 2105 2105 
2144 2145 2106 2106 2145 2146 2107 2107 2146 
2147 2108 2108 2147 2148 2109 2109 2148 2149 
2110 2110 2149 2150 2111 2111 2150 2151 2112 
2112 2151 2152 2113 2113 2152 2153 2114 2114 
2153 2154 2115 2115 2154 2155 2116 2116 2155 
2156 2117 2117 2156 2157 2118 2118 2157 2158 
2119 2119 2158 2159 2120 2120 2159 2160 2121 
2121 2160 2161 2122 2122 2161 2162 2123 2123 
2162 2163 2124 2124 2163 2164 2125 2125 2164 
2165 2126 2126 2165 2166 2127 2127 2166 2167 
2128 2128 2167 2168 2129 2129 2168 2169 2130 
2130 2169 2170 2131 2131 2170 2171 2132 2132 
2171 2172 2133 2133 2172 2173 2134 2134 2173 
2174 2135 2135 2174 2175 2136 2136 2175 2176 
2137 2137 2176 2177 2138 2138 2177 621 622 
43 44 2178 2139 2139 2178 2179 2140 2140 
2179 2180 2141 2141 2180 2181 2142 2142 2181 
2182 2143 2143 2182 2183 2144 2144 2183 2184 
2145 2145 2184 2185 2146 2146 2185 2186 2147 
2147 2186 2187 2148 2148 2187 2188 2149 2149 
2188 2189 2150 2150 2189 2190 2151 2151 2190 
2191 2152 2152 2191 2192 2153 2153 2192 2193 
2154 2154 2193 2194 2155 2155 2194 2195 2156 
2156 2195 2196 2157 2157 2196 2197 2158 2158 
2197 2198 2159 2159 2198 2199 2160 2160 2199 
2200 2161 2161 2200 2201 2162 2162 2201 2202 
2163 2163 2202 2203 2164 2164 2203 2204 2165 
2165 2204 2205 2166 2166 2205 2206 2167 2167 
2206 2207 2168 2168 2207 2208 2169 2169 2208 
2209 2170 2170 2209 2210 2171 2171 2210 2211 
2172 2172 2211 2212 2173 2173 2212 2213 2174 
2174 2213 2214 2175 2175 2214 2215 2176 2176 
2215 2216 2177 2177 2216 620 621 44 45 
2217 2178 2178 2217 2218 2179 2179 2218 2219 
2180 2180 2219 2220 2181 2181 2220 2221 2182 
2182 2221 2222 2183 2183 2222 2223 2184 2184 
2223 2224 2185 2185 2224 2225 2186 2186 2225 
2226 2187 2187 2226 2227 2188 2188 2227 2228 
2189 2189 2228 2229 2190 2190 2229 2230 2191 
2191 2230 2231 2192 2192 2231 2232 2193 2193 
2232 2233 2194 2194 2233 2234 2195 2195 2234 
2235 2196 2196 2235 2236 2197 2197 2236 2237 
2198 2198 2237 2238 2199 2199 2238 2239 2200 
2200 2239 2240 2201 2201 2240 2241 2202 2202 
2241 2242 2203 2203 2242 2243 2204 2204 2243 
2244 2205 2205 2244 2245 2206 2206 2245 2246 
2207 2207 2246 2247 2208 2208 2247 2248 2209 
2209 2248 2249 2210 2210 2249 2250 2211 2211 
2250 2251 2212 2212 2251 2252 2213 2213 2252 
2253 2214 2214 2253 2254 2215 2215 2254 2255 
2216 2216 2255 619 620 45 46 2256 2217 
2217 2256 2257 2218 2218 2257 2258 2219 2219 
2258 2259 2220 2220 2259 2260 2221 2221 2260 
2261 2222 2222 2261 2262 2223 2223 2262 2263 
2224 2224 2263 2264 2225 2225 2264 2265 2226 
2226 2265 2266 2227 2227 2266 2267 2228 2228 
2267 2268 2229 2229 2268 2269 2230 2230 2269 
2270 2231 2231 2270 2271 2232 2232 2271 2272 
2233 2233 2272 2273 2234 2234 2273 2274 2235 
2235 2274 2275 2236 2236 2275 2276 2237 2237 
2276 2277 2238 2238 2277 2278 2239 2239 2278 
2279 2240 2240 2279 2280 2241 2241 2280 2281 
2242 2242 2281 2282 2243 2243 2282 2283 2244 
2244 2283 2284 2245 2245 2284 2285 2246 2246 
2285 2286 2247 2247 2286 2287 2248 2248 2287 
2288 2249 2249 2288 2289 2250 2250 2289 2290 
2251 2251 2290 2291 2252 2252 2291 2292 2253 
2253 2292 2293 2254 2254 2293 2294 2255 2255 
2294 618 619 46 47 2295 2256 2256 2295 
2296 2257 2257 2296 2297 2258 2258 2297 2298 
2259 2259 2298 2299 2260 2260 2299 2300 2261 
2261 2300 2301 2262 2262 2301 2302 2263 2263 
2302 2303 2264 2264 2303 2304 2265 2265 2304 
2305 2266 2266 2305 2306 2267 2267 2306 2307 
2268 2268 2307 2308 2269 2269 2308 2309 2270 
2270 2309 2310 2271 2271 2310 2311 2272 2272 
2311 2312 2273 2273 2312 2313 2274 2274 2313 
2314 2275 2275 2314 2315 2276 2276 2315 2316 
2277 2277 2316 2317 2278 2278 2317 2318 2279 
2279 2318 2319 2280 2280 2319 2320 2281 2281 
2320 2321 2282 2282 2321 2322 2283 2283 2322 
2323 2284 2284 2323 2324 2285 2285 2324 2325 
2286 2286 2325 2326 2287 2287 2326 2327 2288 
2288 2327 2328 2289 2289 2328 2329 2290 2290 
2329 2330 2291 2291 2330 2331 2292 2292 2331 
2332 2293 2293 2332 2333 2294 2294 2333 617 
618 47 48 2334 2295 2295 2334 2335 2296 
2296 2335 2336 2297 2297 2336 2337 2298 2298 
2337 2338 2299 2299 2338 2339 2300 2300 2339 
2340 2301 2301 2340 2341 2302 2302 2341 2342 
2303 2303 2342 2343 2304 2304 2343 2344 2305 
2305 2344 2345 2306 2306 2345 2346 2307 2307 
2346 2347 2308 2308 2347 2348 2309 2309 2348 
2349 2310 2310 2349 2350 2311 2311 2350 2351 
2312 2312 2351 2352 2313 2313 2352 2353 2314 
2314 2353 2354 2315 2315 2354 2355 2316 2316 
2355 2356 2317 2317 2356 2357 2318 2318 2357 
2358 2319 2319 2358 2359 2320 2320 2359 2360 
2321 2321 2360 2361 2322 2322 2361 2362 2323 
2323 2362 2363 2324 2324 2363 2364 2325 2325 
2364 2365 2326 2326 2365 2366 2327 2327 2366 
2367 2328 2328 2367 2368 2329 2329 2368 2369 
2330 2330 2369 2370 2331 2331 2370 2371 2332 
2332 2371 2372 2333 2333 2372 616 617 48 
49 2373 2334 2334 2373 2374 2335 2335 2374 
2375 2336 2336 2375 2376 2337 2337 2376 2377 
2338 2338 2377 2378 2339 2339 2378 2379 2340 
2340 2379 2380 2341 2341 2380 2381 2342 2342 
2381 2382 2343 2343 2382 2383 2344 2344 2383 
2384 2345 2345 2384 2385 2346 2346 2385 2386 
2347 2347 2386 2387 2348 2348 2387 2388 2349 
2349 2388 2389 2350 2350 2389 2390 2351 2351 
2390 2391 2352 2352 2391 2392 2353 2353 2392 
2393 2354 2354 2393 2394 2355 2355 2394 2395 
2356 2356 2395 2396 2357 2357 2396 2397 2358 
2358 2397 2398 2359 2359 2398 2399 2360 2360 
2399 2400 2361 2361 2400 2401 2362 2362 2401 
2402 2363 2363 2402 2403 2364 2364 2403 2404 
2365 2365 2404 2405 2366 2366 2405 2406 2367 
2367 2406 2407 2368 2368 2407 2408 2369 2369 
2408 2409 2370 2370 2409 2410 2371 2371 2410 
2411 2372 2372 2411 615 616 49 50 2412 
2373 2373 2412 2413 2374 2374 2413 2414 2375 
2375 2414 2415 2376 2376 2415 2416 2377 2377 
2416 2417 2378 2378 2417 2418 2379 2379 2418 
2419 2380 2380 2419 2420 2381 2381 2420 2421 
2382 2382 2421 2422 2383 2383 2422 2423 2384 
2384 2423 2424 2385 2385 2424 2425 2386 2386 
2425 2426 2387 2387 2426 2427 2388 2388 2427 
2428 2389 2389 2428 2429 2390 2390 2429 2430 
2391 2391 2430 2431 2392 2392 2431 2432 2393 
2393 2432 2433 2394 2394 2433 2434 2395 2395 
2434 2435 2396 2396 2435 2436 2397 2397 2436 
2437 2398 2398 2437 2438 2399 2399 2438 2439 
2400 2400 2439 2440 2401 2401 2440 2441 2402 
2402 2441 2442 2403 2403 2442 2443 2404 2404 
2443 2444 2405 2405 2444 2445 2406 2406 2445 
2446 2407 2407 2446 2447 2408 2408 2447 2448 
2409 2409 2448 2449 2410 2410 2449 2450 2411 
2411 2450 614 615 50 51 2451 2412 2412 
2451 2452 2413 2413 2452 2453 2414 2414 2453 
2454 2415 2415 2454 2455 2416 2416 2455 2456 
2417 2417 2456 2457 2418 2418 2457 2458 2419 
2419 2458 2459 2420 2420 2459 2460 2421 2421 
2460 2461 2422 2422 2461 2462 2423 2423 2462 
2463 2424 2424 2463 2464 2425 2425 2464 2465 
2426 2426 2465 2466 2427 2427 2466 2467 2428 
2428 2467 2468 2429 2429 2468 2469 2430 2430 
2469 2470 2431 2431 2470 2471 2432 2432 2471 
2472 2433 2433 2472 2473 2434 2434 2473 2474 
2435 2435 2474 2475 2436 2436 2475 2476 2437 
2437 2476 2477 2438 2438 2477 2478 2439 2439 
2478 2479 2440 2440 2479 2480 2441 2441 2480 
2481 2442 2442 2481 2482 2443 2443 2482 2483 
2444 2444 2483 2484 2445 2445 2484 2485 2446 
2446 2485 2486 2447 2447 2486 2487 2448 2448 
2487 2488 2449 2449 2488 2489 2450 2450 2489 
613 614 51 52 2490 2451 2451 2490 2491 
2452 2452 2491 2492 2453 2453 2492 2493 2454 
2454 2493 2494 2455 2455 2494 2495 2456 2456 
2495 2496 2457 2457 2496 2497 2458 2458 2497 
2498 2459 2459 2498 2499 2460 2460 2499 2500 
2461 2461 2500 2501 2462 2462 2501 2502 2463 
2463 2502 2503 2464 2464 2503 2504 2465 2465 
2504 2505 2466 2466 2505 2506 2467 2467 2506 
2507 2468 2468 2507 2508 2469 2469 2508 2509 
2470 2470 2509 2510 2471 2471 2510 2511 2472 
2472 2511 2512 2473 2473 2512 2513 2474 2474 
2513 2514 2475 2475 2514 2515 2476 2476 2515 
2516 2477 2477 2516 2517 2478 2478 2517 2518 
2479 2479 2518 2519 2480 2480 2519 2520 2481 
2481 2520 2521 2482 2482 2521 2522 2483 2483 
2522 2523 2484 2484 2523 2524 2485 2485 2524 
2525 2486 2486 2525 2526 2487 2487 2526 2527 
2488 2488 2527 2528 2489 2489 2528 612 613 
52 53 2529 2490 2490 2529 2530 2491 2491 
2530 2531 2492 2492 2531 2532 2493 2493 2532 
2533 2494 2494 2533 2534 2495 2495 2534 2535 
2496 2496 2535 2536 2497 2497 2536 2537 2498 
2498 2537 2538 2499 2499 2538 2539 2500 2500 
2539 2540 2501 2501 2540 2541 2502 2502 2541 
2542 2503 2503 2542 2543 2504 2504 2543 2544 
2505 2505 2544 2545 2506 2506 2545 2546 2507 
2507 2546 2547 2508 2508 2547 2548 2509 2509 
2548 2549 2510 2510 2549 2550 2511 2511 2550 
2551 2512 2512 2551 2552 2513 2513 2552 2553 
2514 2514 2553 2554 2515 2515 2554 2555 2516 
2516 2555 2556 2517 2517 2556 2557 2518 2518 
2557 2558 2519 2519 2558 2559 2520 2520 2559 
2560 2521 2521 2560 2561 2522 2522 2561 2562 
2523 2523 2562 2563 2524 2524 2563 2564 2525 
2525 2564 2565 2526 2526 2565 2566 2527 2527 
2566 2567 2528 2528 2567 611 612 53 54 
2568 2529 2529 2568 2569 2530 2530 2569 2570 
2531 2531 2570 2571 2532 2532 2571 2572 2533 
2533 2572 2573 2534 2534 2573 2574 2535 2535 
2574 2575 2536 2536 2575 2576 2537 2537 2576 
2577 2538 2538 2577 2578 2539 2539 2578 2579 
2540 2540 2579 2580 2541 2541 2580 2581 2542 
2542 2581 2582 2543 2543 2582 2583 2544 2544 
2583 2584 2545 2545 2584 2585 2546 2546 2585 
2586 2547 2547 2586 2587 2548 2548 2587 2588 
2549 2549 2588 2589 2550 2550 2589 2590 2551 
2551 2590 2591 2552 2552 2591 2592 2553 2553 
2592 2593 2554 2554 2593 2594 2555 2555 2594 
2595 2556 2556 2595 2596 2557 2557 2596 2597 
2558 2558 2597 2598 2559 2559 2598 2599 2560 
2560 2599 2600 2561 2561 2600 2601 2562 2562 
2601 2602 2563 2563 2602 2603 2564 2564 2603 
2604 2565 2565 2604 2605 2566 2566 2605 2606 
2567 2567 2606 610 611 54 55 2607 2568 
2568 2607 2608 2569 2569 2608 2609 2570 2570 
2609 2610 2571 2571 2610 2611 2572 2572 2611 
2612 2573 2573 2612 2613 2574 2574 2613 2614 
2575 2575 2614 2615 2576 2576 2615 2616 2577 
2577 2616 2617 2578 2578 2617 2618 2579 2579 
2618 2619 2580 2580 2619 2620 2581 2581 2620 
2621 2582 2582 2621 2622 2583 2583 2622 2623 
2584 2584 2623 2624 2585 2585 2624 2625 2586 
2586 2625 2626 2587 2587 2626 2627 2588 2588 
2627 2628 2589 2589 2628 2629 2590 2590 2629 
2630 2591 2591 2630 2631 2592 2592 2631 2632 
2593 2593 2632 2633 2594 2594 2633 2634 2595 
2595 2634 2635 2596 2596 2635 2636 2597 2597 
2636 2637 2598 2598 2637 2638 2599 2599 2638 
2639 2600 2600 2639 2640 2601 2601 2640 2641 
2602 2602 2641 2642 2603 2603 2642 2643 2604 
2604 2643 2644 2605 2605 2644 2645 2606 2606 
2645 609 610 55 56 2646 2607 2607 2646 
2647 2608 2608 2647 2648 2609 2609 2648 2649 
2610 2610 2649 2650 2611 2611 2650 2651 2612 
2612 2651 2652 2613 2613 2652 2653 2614 2614 
2653 2654 2615 2615 2654 2655 2616 2616 2655 
2656 2617 2617 2656 2657 2618 2618 2657 2658 
2619 2619 2658 2659 2620 2620 2659 2660 2621 
2621 2660 2661 2622 2622 2661 2662 2623 2623 
2662 2663 2624 2624 2663 2664 2625 2625 2664 
2665 2626 2626 2665 2666 2627 2627 2666 2667 
2628 2628 2667 2668 2629 2629 2668 2669 2630 
2630 2669 2670 2631 2631 2670 2671 2632 2632 
2671 2672 2633 2633 2672 2673 2634 2634 2673 
2674 2635 2635 2674 2675 2636 2636 2675 2676 
2637 2637 2676 2677 2638 2638 2677 2678 2639 
2639 2678 2679 2640 2640 2679 2680 2641 2641 
2680 2681 2642 2642 2681 2682 2643 2643 2682 
2683 2644 2644 2683 2684 2645 2645 2684 608 
609 56 57 2685 2646 2646 2685 2686 2647 
2647 2686 2687 2648 2648 2687 2688 2649 2649 
2688 2689 2650 2650 2689 2690 2651 2651 2690 
2691 2652 2652 2691 2692 2653 2653 2692 2693 
2654 2654 2693 2694 2655 2655 2694 2695 2656 
2656 2695 2696 2657 2657 2696 2697 2658 2658 
2697 2698 2659 2659 2698 2699 2660 2660 2699 
2700 2661 2661 2700 2701 2662 2662 2701 2702 
2663 2663 2702 2703 2664 2664 2703 2704 2665 
2665 2704 2705 2666 2666 2705 2706 2667 2667 
2706 2707 2668 2668 2707 2708 2669 2669 2708 
2709 2670 2670 2709 2710 2671 2671 2710 2711 
2672 2672 2711 2712 2673 2673 2712 2713 2674 
2674 2713 2714 2675 2675 2714 2715 2676 2676 
2715 2716 2677 2677 2716 2717 2678 2678 2717 
2718 2679 2679 2718 2719 2680 2680 2719 2720 
2681 2681 2720 2721 2682 2682 2721 2722 2683 
2683 2722 2723 2684 2684 2723 607 608 57 
58 2724 2685 2685 2724 2725 2686 2686 2725 
2726 2687 2687 2726 2727 2688 2688 2727 2728 
2689 2689 2728 2729 2690 2690 2729 2730 2691 
2691 2730 2731 2692 2692 2731 2732 2693 2693 
2732 2733 2694 2694 2733 2734 2695 2695 2734 
2735 2696 2696 2735 2736 2697 2697 2736 2737 
2698 2698 2737 2738 2699 2699 2738 2739 2700 
2700 2739 2740 2701 2701 2740 2741 2702 2702 
2741 2742 2703 2703 2742 2743 2704 2704 2743 
2744 2705 2705 2744 2745 2706 2706 2745 2746 
2707 2707 2746 2747 2708 2708 2747 2748 2709 
2709 2748 2749 2710 2710 2749 2750 2711 2711 
2750 2751 2712 2712 2751 2752 2713 2713 2752 
2753 2714 2714 2753 2754 2715 2715 2754 2755 
2716 2716 2755 2756 2717 2717 2756 2757 2718 
2718 2757 2758 2719 2719 2758 2759 2720 2720 
2759 2760 2721 2721 2760 2761 2722 2722 2761 
2762 2723 2723 2762 606 607 58 59 2763 
2724 2724 2763 2764 2725 2725 2764 2765 2726 
2726 2765 2766 2727 2727 2766 2767 2728 2728 
2767 2768 2729 2729 2768 2769 2730 2730 2769 
2770 2731 2731 2770 2771 2732 2732 2771 2772 
2733 2733 2772 2773 2734 2734 2773 2774 2735 
2735 2774 2775 2736 2736 2775 2776 2737 2737 
2776 2777 2738 2738 2777 2778 2739 2739 2778 
2779 2740 2740 2779 2780 2741 2741 2780 2781 
2742 2742 2781 2782 2743 2743 2782 2783 2744 
2744 2783 2784 2745 2745 2784 2785 2746 2746 
2785 2786 2747 2747 2786 2787 2748 2748 2787 
2788 2749 2749 2788 2789 2750 2750 2789 2790 
2751 2751 2790 2791 2752 2752 2791 2792 2753 
2753 2792 2793 2754 2754 2793 2794 2755 2755 
2794 2795 2756 2756 2795 2796 2757 2757 2796 
2797 2758 2758 2797 2798 2759 2759 2798 2799 
2760 2760 2799 2800 2761 2761 2800 2801 2762 
2762 2801 605 606 59 60 2802 2763 2763 
2802 2803 2764 2764 2803 2804 2765 2765 2804 
2805 2766 2766 2805 2806 2767 2767 2806 2807 
2768 2768 2807 2808 2769 2769 2808 2809 2770 
2770 2809 2810 2771 2771 2810 2811 2772 2772 
2811 2812 2773 2773 2812 2813 2774 2774 2813 
2814 2775 2775 2814 2815 2776 2776 2815 2816 
2777 2777 2816 2817 2778 2778 2817 2818 2779 
2779 2818 2819 2780 2780 2819 2820 2781 2781 
2820 2821 2782 2782 2821 2822 2783 2783 2822 
2823 2784 2784 2823 2824 2785 2785 2824 2825 
2786 2786 2825 2826 2787 2787 2826 2827 2788 
2788 2827 2828 2789 2789 2828 2829 2790 2790 
2829 2830 2791 2791 2830 2831 2792 2792 2831 
2832 2793 2793 2832 2833 2794 2794 2833 2834 
2795 2795 2834 2835 2796 2796 2835 2836 2797 
2797 2836 2837 2798 2798 2837 2838 2799 2799 
2838 2839 2800 2800 2839 2840 2801 2801 2840 
604 605 60 61 2841 2802 2802 2841 2842 
2803 2803 2842 2843 2804 2804 2843 2844 2805 
2805 2844 2845 2806 2806 2845 2846 2807 2807 
2846 2847 2808 2808 2847 2848 2809 2809 2848 
2849 2810 2810 2849 2850 2811 2811 2850 2851 
2812 2812 2851 2852 2813 2813 2852 2853 2814 
2814 2853 2854 2815 2815 2854 2855 2816 2816 
2855 2856 2817 2817 2856 2857 2818 2818 2857 
2858 2819 2819 2858 2859 2820 2820 2859 2860 
2821 2821 2860 2861 2822 2822 2861 2862 2823 
2823 2862 2863 2824 2824 2863 2864 2825 2825 
2864 2865 2826 2826 2865 2866 2827 2827 2866 
2867 2828 2828 2867 2868 2829 2829 2868 2869 
2830 2830 2869 2870 2831 2831 2870 2871 2832 
2832 2871 2872 2833 2833 2872 2873 2834 2834 
2873 2874 2835 2835 2874 2875 2836 2836 2875 
2876 2837 2837 2876 2877 2838 2838 2877 2878 
2839 2839 2878 2879 2840 2840 2879 603 604 
61 62 2880 2841 2841 2880 2881 2842 2842 
2881 2882 2843 2843 2882 2883 2844 2844 2883 
2884 2845 2845 2884 2885 2846 2846 2885 2886 
2847 2847 2886 2887 2848 2848 2887 2888 2849 
2849 2888 2889 2850 2850 2889 2890 2851 2851 
2890 2891 2852 2852 2891 2892 2853 2853 2892 
2893 2854 2854 2893 2894 2855 2855 2894 2895 
2856 2856 2895 2896 2857 2857 2896 2897 2858 
2858 2897 2898 2859 2859 2898 2899 2860 2860 
2899 2900 2861 2861 2900 2901 2862 2862 2901 
2902 2863 2863 2902 2903 2864 2864 2903 2904 
2865 2865 2904 2905 2866 2866 2905 2906 2867 
2867 2906 2907 2868 2868 2907 2908 2869 2869 
2908 2909 2870 2870 2909 2910 2871 2871 2910 
2911 2872 2872 2911 2912 2873 2873 2912 2913 
2874 2874 2913 2914 2875 2875 2914 2915 2876 
2876 2915 2916 2877 2877 2916 2917 2878 2878 
2917 2918 2879 2879 2918 602 603 62 63 
2919 2880 2880 2919 2920 2881 2881 2920 2921 
2882 2882 2921 2922 2883 2883 2922 2923 2884 
2884 2923 2924 2885 2885 2924 2925 2886 2886 
2925 2926 2887 2887 2926 2927 2888 2888 2927 
2928 2889 2889 2928 2929 2890 2890 2929 2930 
2891 2891 2930 2931 2892 2892 2931 2932 2893 
2893 2932 2933 2894 2894 2933 2934 2895 2895 
2934 2935 2896 2896 2935 2936 2897 2897 2936 
2937 2898 2898 2937 2938 2899 2899 2938 2939 
2900 2900 2939 2940 2901 2901 2940 2941 2902 
2902 2941 2942 2903 2903 2942 2943 2904 2904 
2943 2944 2905 2905 2944 2945 2906 2906 2945 
2946 2907 2907 2946 2947 2908 2908 2947 2948 
2909 2909 2948 2949 2910 2910 2949 2950 2911 
2911 2950 2951 2912 2912 2951 2952 2913 2913 
2952 2953 2914 2914 2953 2954 2915 2915 2954 
2955 2916 2916 2955 2956 2917 2917 2956 2957 
2918 2918 2957 601 602 63 64 2958 2919 
2919 2958 2959 2920 2920 2959 2960 2921 2921 
2960 2961 2922 2922 2961 2962 2923 2923 2962 
2963 2924 2924 2963 2964 2925 2925 2964 2965 
2926 2926 2965 2966 2927 2927 2966 2967 2928 
2928 2967 2968 2929 2929 2968 2969 2930 2930 
2969 2970 2931 2931 2970 2971 2932 2932 2971 
2972 2933 2933 2972 2973 2934 2934 2973 2974 
2935 2935 2974 2975 2936 2936 2975 2976 2937 
2937 2976 2977 2938 2938 2977 2978 2939 2939 
2978 2979 2940 2940 2979 2980 2941 2941 2980 
2981 2942 2942 2981 2982 2943 2943 2982 2983 
2944 2944 2983 2984 2945 2945 2984 2985 2946 
2946 2985 2986 2947 2947 2986 2987 2948 2948 
2987 2988 2949 2949 2988 2989 2950 2950 2989 
2990 2951 2951 2990 2991 2952 2952 2991 2992 
2953 2953 2992 2993 2954 2954 2993 2994 2955 
2955 2994 2995 2956 2956 2995 2996 2957 2957 
2996 600 601 64 65 2997 2958 2958 2997 
2998 2959 2959 2998 2999 2960 2960 2999 3000 
2961 2961 3000 3001 2962 2962 3001 3002 2963 
2963 3002 3003 2964 2964 3003 3004 2965 2965 
3004 3005 2966 2966 3005 3006 2967 2967 3006 
3007 2968 2968 3007 3008 2969 2969 3008 3009 
2970 2970 3009 3010 2971 2971 3010 3011 2972 
2972 3011 3012 2973 2973 3012 3013 2974 2974 
3013 3014 2975 2975 3014 3015 2976 2976 3015 
3016 2977 2977 3016 3017 2978 2978 3017 3018 
2979 2979 3018 3019 2980 2980 3019 3020 2981 
2981 3020 3021 2982 2982 3021 3022 2983 2983 
3022 3023 2984 2984 3023 3024 2985 2985 3024 
3025 2986 2986 3025 3026 2987 2987 3026 3027 
2988 2988 3027 3028 2989 2989 3028 3029 2990 
2990 3029 3030 2991 2991 3030 3031 2992 2992 
3031 3032 2993 2993 3032 3033 2994 2994 3033 
3034 2995 2995 3034 3035 2996 2996 3035 599 
600 65 66 3036 2997 2997 3036 3037 2998 
2998 3037 3038 2999 2999 3038 3039 3000 3000 
3039 3040 3001 3001 3040 3041 3002 3002 3041 
3042 3003 3003 3042 3043 3004 3004 3043 3044 
3005 3005 3044 3045 3006 3006 3045 3046 3007 
3007 3046 3047 3008 3008 3047 3048 3009 3009 
3048 3049 3010 3010 3049 3050 3011 3011 3050 
3051 3012 3012 3051 3052 3013 3013 3052 3053 
3014 3014 3053 3054 3015 3015 3054 3055 3016 
3016 3055 3056 3017 3017 3056 3057 3018 3018 
3057 3058 3019 3019 3058 3059 3020 3020 3059 
3060 3021 3021 3060 3061 3022 3022 3061 3062 
3023 3023 3062 3063 3024 3024 3063 3064 3025 
3025 3064 3065 3026 3026 3065 3066 3027 3027 
3066 3067 3028 3028 3067 3068 3029 3029 3068 
3069 3030 3030 3069 3070 3031 3031 3070 3071 
3032 3032 3071 3072 3033 3033 3072 3073 3034 
3034 3073 3074 3035 3035 3074 598 599 66 
67 3075 3036 3036 3075 3076 3037 3037 3076 
3077 3038 3038 3077 3078 3039 3039 3078 3079 
3040 3040 3079 3080 3041 3041 3080 3081 3042 
3042 3081 3082 3043 3043 3082 3083 3044 3044 
3083 3084 3045 3045 3084 3085 3046 3046 3085 
3086 3047 3047 3086 3087 3048 3048 3087 3088 
3049 3049 3088 3089 3050 3050 3089 3090 3051 
3051 3090 3091 3052 3052 3091 3092 3053 3053 
3092 3093 3054 3054 3093 3094 3055 3055 3094 
3095 3056 3056 3095 3096 3057 3057 3096 3097 
3058 3058 3097 3098 3059 3059 3098 3099 3060 
3060 3099 3100 3061 3061 3100 3101 3062 3062 
3101 3102 3063 3063 3102 3103 3064 3064 3103 
3104 3065 3065 3104 3105 3066 3066 3105 3106 
3067 3067 3106 3107 3068 3068 3107 3108 3069 
3069 3108 3109 3070 3070 3109 3110 3071 3071 
3110 3111 3072 3072 3111 3112 3073 3073 3112 
3113 3074 3074 3113 597 598 67 68 3114 
3075 3075 3114 3115 3076 3076 3115 3116 3077 
3077 3116 3117 3078 3078 3117 3118 3079 3079 
3118 3119 3080 3080 3119 3120 3081 3081 3120 
3121 3082 3082 3121 3122 3083 3083 3122 3123 
3084 3084 3123 3124 3085 3085 3124 3125 3086 
3086 3125 3126 3087 3087 3126 3127 3088 3088 
3127 3128 3089 3089 3128 3129 3090 3090 3129 
3130 3091 3091 3130 3131 3092 3092 3131 3132 
3093 3093 3132 3133 3094 3094 3133 3134 3095 
3095 3134 3135 3096 3096 3135 3136 3097 3097 
3136 3137 3098 3098 3137 3138 3099 3099 3138 
3139 3100 3100 3139 3140 3101 3101 3140 3141 
3102 3102 3141 3142 3103 3103 3142 3143 3104 
3104 3143 3144 3105 3105 3144 3145 3106 3106 
3145 3146 3107 3107 3146 3147 3108 3108 3147 
3148 3109 3109 3148 3149 3110 3110 3149 3150 
3111 3111 3150 3151 3112 3112 3151 3152 3113 
3113 3152 596 597 68 69 3153 3114 3114 
3153 3154 3115 3115 3154 3155 3116 3116 3155 
3156 3117 3117 3156 3157 3118 3118 3157 3158 
3119 3119 3158 3159 3120 3120 3159 3160 3121 
3121 3160 3161 3122 3122 3161 3162 3123 3123 
3162 3163 3124 3124 3163 3164 3125 3125 3164 
3165 3126 3126 3165 3166 3127 3127 3166 3167 
3128 3128 3167 3168 3129 3129 3168 3169 3130 
3130 3169 3170 3131 3131 3170 3171 3132 3132 
3171 3172 3133 3133 3172 3173 3134 3134 3173 
3174 3135 3135 3174 3175 3136 3136 3175 3176 
3137 3137 3176 3177 3138 3138 3177 3178 3139 
3139 3178 3179 3140 3140 3179 3180 3141 3141 
3180 3181 3142 3142 3181 3182 3143 3143 3182 
3183 3144 3144 3183 3184 3145 3145 3184 3185 
3146 3146 3185 3186 3147 3147 3186 3187 3148 
3148 3187 3188 3149 3149 3188 3189 3150 3150 
3189 3190 3151 3151 3190 3191 3152 3152 3191 
595 596 69 70 3192 3153 3153 3192 3193 
3154 3154 3193 3194 3155 3155 3194 3195 3156 
3156 3195 3196 3157 3157 3196 3197 3158 3158 
3197 3198 3159 3159 3198 3199 3160 3160 3199 
3200 3161 3161 3200 3201 3162 3162 3201 3202 
3163 3163 3202 3203 3164 3164 3203 3204 3165 
3165 3204 3205 3166 3166 3205 3206 3167 3167 
3206 3207 3168 3168 3207 3208 3169 3169 3208 
3209 3170 3170 3209 3210 3171 3171 3210 3211 
3172 3172 3211 3212 3173 3173 3212 3213 3174 
3174 3213 3214 3175 3175 3214 3215 3176 3176 
3215 3216 3177 3177 3216 3217 3178 3178 3217 
3218 3179 3179 3218 3219 3180 3180 3219 3220 
3181 3181 3220 3221 3182 3182 3221 3222 3183 
3183 3222 3223 3184 3184 3223 3224 3185 3185 
3224 3225 3186 3186 3225 3226 3187 3187 3226 
3227 3188 3188 3227 3228 3189 3189 3228 3229 
3190 3190 3229 3230 3191 3191 3230 594 595 
70 71 3231 3192 3192 3231 3232 3193 3193 
3232 3233 3194 3194 3233 3234 3195 3195 3234 
3235 3196 3196 3235 3236 3197 3197 3236 3237 
3198 3198 3237 3238 3199 3199 3238 3239 3200 
3200 3239 3240 3201 3201 3240 3241 3202 3202 
3241 3242 3203 3203 3242 3243 3204 3204 3243 
3244 3205 3205 3244 3245 3206 3206 3245 3246 
3207 3207 3246 3247 3208 3208 3247 3248 3209 
3209 3248 3249 3210 3210 3249 3250 3211 3211 
3250 3251 3212 3212 3251 3252 3213 3213 3252 
3253 3214 3214 3253 3254 3215 3215 3254 3255 
3216 3216 3255 3256 3217 3217 3256 3257 3218 
3218 3257 3258 3219 3219 3258 3259 3220 3220 
3259 3260 3221 3221 3260 3261 3222 3222 3261 
3262 3223 3223 3262 3263 3224 3224 3263 3264 
3225 3225 3264 3265 3226 3226 3265 3266 3227 
3227 3266 3267 3228 3228 3267 3268 3229 3229 
3268 3269 3230 3230 3269 593 594 71 72 
3270 3231 3231 3270 3271 3232 3232 3271 3272 
3233 3233 3272 3273 3234 3234 3273 3274 3235 
3235 3274 3275 3236 3236 3275 3276 3237 3237 
3276 3277 3238 3238 3277 3278 3239 3239 3278 
3279 3240 3240 3279 3280 3241 3241 3280 3281 
3242 3242 3281 3282 3243 3243 3282 3283 3244 
3244 3283 3284 3245 3245 3284 3285 3246 3246 
3285 3286 3247 3247 3286 3287 3248 3248 3287 
3288 3249 3249 3288 3289 3250 3250 3289 3290 
3251 3251 3290 3291 3252 3252 3291 3292 3253 
3253 3292 3293 3254 3254 3293 3294 3255 3255 
3294 3295 3256 3256 3295 3296 3257 3257 3296 
3297 3258 3258 3297 3298 3259 3259 3298 3299 
3260 3260 3299 3300 3261 3261 3300 3301 3262 
3262 3301 3302 3263 3263 3302 3303 3264 3264 
3303 3304 3265 3265 3304 3305 3266 3266 3305 
3306 3267 3267 3306 3307 3268 3268 3307 3308 
3269 3269 3308 592 593 72 73 3309 3270 
3270 3309 3310 3271 3271 3310 3311 3272 3272 
3311 3312 3273 3273 3312 3313 3274 3274 3313 
3314 3275 3275 3314 3315 3276 3276 3315 3316 
3277 3277 3316 3317 3278 3278 3317 3318 3279 
3279 3318 3319 3280 3280 3319 3320 3281 3281 
3320 3321 3282 3282 3321 3322 3283 3283 3322 
3323 3284 3284 3323 3324 3285 3285 3324 3325 
3286 3286 3325 3326 3287 3287 3326 3327 3288 
3288 3327 3328 3289 3289 3328 3329 3290 3290 
3329 3330 3291 3291 3330 3331 3292 3292 3331 
3332 3293 3293 3332 3333 3294 3294 3333 3334 
3295 3295 3334 3335 3296 3296 3335 3336 3297 
3297 3336 3337 3298 3298 3337 3338 3299 3299 
3338 3339 3300 3300 3339 3340 3301 3301 3340 
3341 3302 3302 3341 3342 3303 3303 3342 3343 
3304 3304 3343 3344 3305 3305 3344 3345 3306 
3306 3345 3346 3307 3307 3346 3347 3308 3308 
3347 591 592 73 74 3348 3309 3309 3348 
3349 3310 3310 3349 3350 3311 3311 3350 3351 
3312 3312 3351 3352 3313 3313 3352 3353 3314 
3314 3353 3354 3315 3315 3354 3355 3316 3316 
3355 3356 3317 3317 3356 3357 3318 3318 3357 
3358 3319 3319 3358 3359 3320 3320 3359 3360 
3321 3321 3360 3361 3322 3322 3361 3362 3323 
3323 3362 3363 3324 3324 3363 3364 3325 3325 
3364 3365 3326 3326 3365 3366 3327 3327 3366 
3367 3328 3328 3367 3368 3329 3329 3368 3369 
3330 3330 3369 3370 3331 3331 3370 3371 3332 
3332 3371 3372 3333 3333 3372 3373 3334 3334 
3373 3374 3335 3335 3374 3375 3336 3336 3375 
3376 3337 3337 3376 3377 3338 3338 3377 3378 
3339 3339 3378 3379 3340 3340 3379 3380 3341 
3341 3380 3381 3342 3342 3381 3382 3343 3343 
3382 3383 3344 3344 3383 3384 3345 3345 3384 
3385 3346 3346 3385 3386 3347 3347 3386 590 
591 74 75 3387 3348 3348 3387 3388 3349 
3349 3388 3389 3350 3350 3389 3390 3351 3351 
3390 3391 3352 3352 3391 3392 3353 3353 3392 
3393 3354 3354 3393 3394 3355 3355 3394 3395 
3356 3356 3395 3396 3357 3357 3396 3397 3358 
3358 3397 3398 3359 3359 3398 3399 3360 3360 
3399 3400 3361 3361 3400 3401 3362 3362 3401 
3402 3363 3363 3402 3403 3364 3364 3403 3404 
3365 3365 3404 3405 3366 3366 3405 3406 3367 
3367 3406 3407 3368 3368 3407 3408 3369 3369 
3408 3409 3370 3370 3409 3410 3371 3371 3410 
3411 3372 3372 3411 3412 3373 3373 3412 3413 
3374 3374 3413 3414 3375 3375 3414 3415 3376 
3376 3415 3416 3377 3377 3416 3417 3378 3378 
3417 3418 3379 3379 3418 3419 3380 3380 3419 
3420 3381 3381 3420 3421 3382 3382 3421 3422 
3383 3383 3422 3423 3384 3384 3423 3424 3385 
3385 3424 3425 3386 3386 3425 589 590 75 
76 3426 3387 3387 3426 3427 3388 3388 3427 
3428 3389 3389 3428 3429 3390 3390 3429 3430 
3391 3391 3430 3431 3392 3392 3431 3432 3393 
3393 3432 3433 3394 3394 3433 3434 3395 3395 
3434 3435 3396 3396 3435 3436 3397 3397 3436 
3437 3398 3398 3437 3438 3399 3399 3438 3439 
3400 3400 3439 3440 3401 3401 3440 3441 3402 
3402 3441 3442 3403 3403 3442 3443 3404 3404 
3443 3444 3405 3405 3444 3445 3406 3406 3445 
3446 3407 3407 3446 3447 3408 3408 3447 3448 
3409 3409 3448 3449 3410 3410 3449 3450 3411 
3411 3450 3451 3412 3412 3451 3452 3413 3413 
3452 3453 3414 3414 3453 3454 3415 3415 3454 
3455 3416 3416 3455 3456 3417 3417 3456 3457 
3418 3418 3457 3458 3419 3419 3458 3459 3420 
3420 3459 3460 3421 3421 3460 3461 3422 3422 
3461 3462 3423 3423 3462 3463 3424 3424 3463 
3464 3425 3425 3464 588 589 76 77 3465 
3426 3426 3465 3466 3427 3427 3466 3467 3428 
3428 3467 3468 3429 3429 3468 3469 3430 3430 
3469 3470 3431 3431 3470 3471 3432 3432 3471 
3472 3433 3433 3472 3473 3434 3434 3473 3474 
3435 3435 3474 3475 3436 3436 3475 3476 3437 
3437 3476 3477 3438 3438 3477 3478 3439 3439 
3478 3479 3440 3440 3479 3480 3441 3441 3480 
3481 3442 3442 3481 3482 3443 3443 3482 3483 
3444 3444 3483 3484 3445 3445 3484 3485 3446 
3446 3485 3486 3447 3447 3486 3487 3448 3448 
3487 3488 3449 3449 3488 3489 3450 3450 3489 
3490 3451 3451 3490 3491 3452 3452 3491 3492 
3453 3453 3492 3493 3454 3454 3493 3494 3455 
3455 3494 3495 3456 3456 3495 3496 3457 3457 
3496 3497 3458 3458 3497 3498 3459 3459 3498 
3499 3460 3460 3499 3500 3461 3461 3500 3501 
3462 3462 3501 3502 3463 3463 3502 3503 3464 
3464 3503 587 588 77 78 3504 3465 3465 
3504 3505 3466 3466 3505 3506 3467 3467 3506 
3507 3468 3468 3507 3508 3469 3469 3508 3509 
3470 3470 3509 3510 3471 3471 3510 3511 3472 
3472 3511 3512 3473 3473 3512 3513 3474 3474 
3513 3514 3475 3475 3514 3515 3476 3476 3515 
3516 3477 3477 3516 3517 3478 3478 3517 3518 
3479 3479 3518 3519 3480 3480 3519 3520 3481 
3481 3520 3521 3482 3482 3521 3522 3483 3483 
3522 3523 3484 3484 3523 3524 3485 3485 3524 
3525 3486 3486 3525 3526 3487 3487 3526 3527 
3488 3488 3527 3528 3489 3489 3528 3529 3490 
3490 3529 3530 3491 3491 3530 3531 3492 3492 
3531 3532 3493 3493 3532 3533 3494 3494 3533 
3534 3495 3495 3534 3535 3496 3496 3535 3536 
3497 3497 3536 3537 3498 3498 3537 3538 3499 
3499 3538 3539 3500 3500 3539 3540 3501 3501 
3540 3541 3502 3502 3541 3542 3503 3503 3542 
586 587 78 79 3543 3504 3504 3543 3544 
3505 3505 3544 3545 3506 3506 3545 3546 3507 
3507 3546 3547 3508 3508 3547 3548 3509 3509 
3548 3549 3510 3510 3549 3550 3511 3511 3550 
3551 3512 3512 3551 3552 3513 3513 3552 3553 
3514 3514 3553 3554 3515 3515 3554 3555 3516 
3516 3555 3556 3517 3517 3556 3557 3518 3518 
3557 3558 3519 3519 3558 3559 3520 3520 3559 
3560 3521 3521 3560 3561 3522 3522 3561 3562 
3523 3523 3562 3563 3524 3524 3563 3564 3525 
3525 3564 3565 3526 3526 3565 3566 3527 3527 
3566 3567 3528 3528 3567 3568 3529 3529 3568 
3569 3530 3530 3569 3570 3531 3531 3570 3571 
3532 3532 3571 3572 3533 3533 3572 3573 3534 
3534 3573 3574 3535 3535 3574 3575 3536 3536 
3575 3576 3537 3537 3576 3577 3538 3538 3577 
3578 3539 3539 3578 3579 3540 3540 3579 3580 
3541 3541 3580 3581 3542 3542 3581 585 586 
79 80 3582 3543 3543 3582 3583 3544 3544 
3583 3584 3545 3545 3584 3585 3546 3546 3585 
3586 3547 3547 3586 3587 3548 3548 3587 3588 
3549 3549 3588 3589 3550 3550 3589 3590 3551 
3551 3590 3591 3552 3552 3591 3592 3553 3553 
3592 3593 3554 3554 3593 3594 3555 3555 3594 
3595 3556 3556 3595 3596 3557 3557 3596 3597 
3558 3558 3597 3598 3559 3559 3598 3599 3560 
3560 3599 3600 3561 3561 3600 3601 3562 3562 
3601 3602 3563 3563 3602 3603 3564 3564 3603 
3604 3565 3565 3604 3605 3566 3566 3605 3606 
3567 3567 3606 3607 3568 3568 3607 3608 3569 
3569 3608 3609 3570 3570 3609 3610 3571 3571 
3610 3611 3572 3572 3611 3612 3573 3573 3612 
3613 3574 3574 3613 3614 3575 3575 3614 3615 
3576 3576 3615 3616 3577 3577 3616 3617 3578 
3578 3617 3618 3579 3579 3618 3619 3580 3580 
3619 3620 3581 3581 3620 584 585 80 81 
3621 3582 3582 3621 3622 3583 3583 3622 3623 
3584 3584 3623 3624 3585 3585 3624 3625 3586 
3586 3625 3626 3587 3587 3626 3627 3588 3588 
3627 3628 3589 3589 3628 3629 3590 3590 3629 
3630 3591 3591 3630 3631 3592 3592 3631 3632 
3593 3593 3632 3633 3594 3594 3633 3634 3595 
3595 3634 3635 3596 3596 3635 3636 3597 3597 
3636 3637 3598 3598 3637 3638 3599 3599 3638 
3639 3600 3600 3639 3640 3601 3601 3640 3641 
3602 3602 3641 3642 3603 3603 3642 3643 3604 
3604 3643 3644 3605 3605 3644 3645 3606 3606 
3645 3646 3607 3607 3646 3647 3608 3608 3647 
3648 3609 3609 3648 3649 3610 3610 3649 3650 
3611 3611 3650 3651 3612 3612 3651 3652 3613 
3613 3652 3653 3614 3614 3653 3654 3615 3615 
3654 3655 3616 3616 3655 3656 3617 3617 3656 
3657 3618 3618 3657 3658 3619 3619 3658 3659 
3620 3620 3659 583 584 81 82 3660 3621 
3621 3660 3661 3622 3622 3661 3662 3623 3623 
3662 3663 3624 3624 3663 3664 3625 3625 3664 
3665 3626 3626 3665 3666 3627 3627 3666 3667 
3628 3628 3667 3668 3629 3629 3668 3669 3630 
3630 3669 3670 3631 3631 3670 3671 3632 3632 
3671 3672 3633 3633 3672 3673 3634 3634 3673 
3674 3635 3635 3674 3675 3636 3636 3675 3676 
3637 3637 3676 3677 3638 3638 3677 3678 3639 
3639 3678 3679 3640 3640 3679 3680 3641 3641 
3680 3681 3642 3642 3681 3682 3643 3643 3682 
3683 3644 3644 3683 3684 3645 3645 3684 3685 
3646 3646 3685 3686 3647 3647 3686 3687 3648 
3648 3687 3688 3649 3649 3688 3689 3650 3650 
3689 3690 3651 3651 3690 3691 3652 3652 3691 
3692 3653 3653 3692 3693 3654 3654 3693 3694 
3655 3655 3694 3695 3656 3656 3695 3696 3657 
3657 3696 3697 3658 3658 3697 3698 3659 3659 
3698 582 583 82 83 3699 3660 3660 3699 
3700 3661 3661 3700 3701 3662 3662 3701 3702 
3663 3663 3702 3703 3664 3664 3703 3704 3665 
3665 3704 3705 3666 3666 3705 3706 3667 3667 
3706 3707 3668 3668 3707 3708 3669 3669 3708 
3709 3670 3670 3709 3710 3671 3671 3710 3711 
3672 3672 3711 3712 3673 3673 3712 3713 3674 
3674 3713 3714 3675 3675 3714 3715 3676 3676 
3715 3716 3677 3677 3716 3717 3678 3678 3717 
3718 3679 3679 3718 3719 3680 3680 3719 3720 
3681 3681 3720 3721 3682 3682 3721 3722 3683 
3683 3722 3723 3684 3684 3723 3724 3685 3685 
3724 3725 3686 3686 3725 3726 3687 3687 3726 
3727 3688 3688 3727 3728 3689 3689 3728 3729 
3690 3690 3729 3730 3691 3691 3730 3731 3692 
3692 3731 3732 3693 3693 3732 3733 3694 3694 
3733 3734 3695 3695 3734 3735 3696 3696 3735 
3736 3697 3697 3736 3737 3698 3698 3737 581 
582 83 84 3738 3699 3699 3738 3739 3700 
3700 3739 3740 3701 3701 3740 3741 3702 3702 
3741 3742 3703 3703 3742 3743 3704 3704 3743 
3744 3705 3705 3744 3745 3706 3706 3745 3746 
3707 3707 3746 3747 3708 3708 3747 3748 3709 
3709 3748 3749 3710 3710 3749 3750 3711 3711 
3750 3751 3712 3712 3751 3752 3713 3713 3752 
3753 3714 3714 3753 3754 3715 3715 3754 3755 
3716 3716 3755 3756 3717 3717 3756 3757 3718 
3718 3757 3758 3719 3719 3758 3759 3720 3720 
3759 3760 3721 3721 3760 3761 3722 3722 3761 
3762 3723 3723 3762 3763 3724 3724 3763 3764 
3725 3725 3764 3765 3726 3726 3765 3766 3727 
3727 3766 3767 3728 3728 3767 3768 3729 3729 
3768 3769 3730 3730 3769 3770 3731 3731 3770 
3771 3732 3732 3771 3772 3733 3733 3772 3773 
3734 3734 3773 3774 3735 3735 3774 3775 3736 
3736 3775 3776 3737 3737 3776 580 581 84 
85 3777 3738 3738 3777 3778 3739 3739 3778 
3779 3740 3740 3779 3780 3741 3741 3780 3781 
3742 3742 3781 3782 3743 3743 3782 3783 3744 
3744 3783 3784 3745 3745 3784 3785 3746 3746 
3785 3786 3747 3747 3786 3787 3748 3748 3787 
3788 3749 3749 3788 3789 3750 3750 3789 3790 
3751 3751 3790 3791 3752 3752 3791 3792 3753 
3753 3792 3793 3754 3754 3793 3794 3755 3755 
3794 3795 3756 3756 3795 3796 3757 3757 3796 
3797 3758 3758 3797 3798 3759 3759 3798 3799 
3760 3760 3799 3800 3761 3761 3800 3801 3762 
3762 3801 3802 3763 3763 3802 3803 3764 3764 
3803 3804 3765 3765 3804 3805 3766 3766 3805 
3806 3767 3767 3806 3807 3768 3768 3807 3808 
3769 3769 3808 3809 3770 3770 3809 3810 3771 
3771 3810 3811 3772 3772 3811 3812 3773 3773 
3812 3813 3774 3774 3813 3814 3775 3775 3814 
3815 3776 3776 3815 579 580 85 86 3816 
3777 3777 3816 3817 3778 3778 3817 3818 3779 
3779 3818 3819 3780 3780 3819 3820 3781 3781 
3820 3821 3782 3782 3821 3822 3783 3783 3822 
3823 3784 3784 3823 3824 3785 3785 3824 3825 
3786 3786 3825 3826 3787 3787 3826 3827 3788 
3788 3827 3828 3789 3789 3828 3829 3790 3790 
3829 3830 3791 3791 3830 3831 3792 3792 3831 
3832 3793 3793 3832 3833 3794 3794 3833 3834 
3795 3795 3834 3835 3796 3796 3835 3836 3797 
3797 3836 3837 3798 3798 3837 3838 3799 3799 
3838 3839 3800 3800 3839 3840 3801 3801 3840 
3841 3802 3802 3841 3842 3803 3803 3842 3843 
3804 3804 3843 3844 3805 3805 3844 3845 3806 
3806 3845 3846 3807 3807 3846 3847 3808 3808 
3847 3848 3809 3809 3848 3849 3810 3810 3849 
3850 3811 3811 3850 3851 3812 3812 3851 3852 
3813 3813 3852 3853 3814 3814 3853 3854 3815 
3815 3854 578 579 86 87 3855 3816 3816 
3855 3856 3817 3817 3856 3857 3818 3818 3857 
3858 3819 3819 3858 3859 3820 3820 3859 3860 
3821 3821 3860 3861 3822 3822 3861 3862 3823 
3823 3862 3863 3824 3824 3863 3864 3825 3825 
3864 3865 3826 3826 3865 3866 3827 3827 3866 
3867 3828 3828 3867 3868 3829 3829 3868 3869 
3830 3830 3869 3870 3831 3831 3870 3871 3832 
3832 3871 3872 3833 3833 3872 3873 3834 3834 
3873 3874 3835 3835 3874 3875 3836 3836 3875 
3876 3837 3837 3876 3877 3838 3838 3877 3878 
3839 3839 3878 3879 3840 3840 3879 3880 3841 
3841 3880 3881 3842 3842 3881 3882 3843 3843 
3882 3883 3844 3844 3883 3884 3845 3845 3884 
3885 3846 3846 3885 3886 3847 3847 3886 3887 
3848 3848 3887 3888 3849 3849 3888 3889 3850 
3850 3889 3890 3851 3851 3890 3891 3852 3852 
3891 3892 3853 3853 3892 3893 3854 3854 3893 
577 578 87 88 3894 3855 3855 3894 3895 
3856 3856 3895 3896 3857 3857 3896 3897 3858 
3858 3897 3898 3859 3859 3898 3899 3860 3860 
3899 3900 3861 3861 3900 3901 3862 3862 3901 
3902 3863 3863 3902 3903 3864 3864 3903 3904 
3865 3865 3904 3905 3866 3866 3905 3906 3867 
3867 3906 3907 3868 3868 3907 3908 3869 3869 
3908 3909 3870 3870 3909 3910 3871 3871 3910 
3911 3872 3872 3911 3912 3873 3873 3912 3913 
3874 3874 3913 3914 3875 3875 3914 3915 3876 
3876 3915 3916 3877 3877 3916 3917 3878 3878 
3917 3918 3879 3879 3918 3919 3880 3880 3919 
3920 3881 3881 3920 3921 3882 3882 3921 3922 
3883 3883 3922 3923 3884 3884 3923 3924 3885 
3885 3924 3925 3886 3886 3925 3926 3887 3887 
3926 3927 3888 3888 3927 3928 3889 3889 3928 
3929 3890 3890 3929 3930 3891 3891 3930 3931 
3892 3892 3931 3932 3893 3893 3932 576 577 
88 89 3933 3894 3894 3933 3934 3895 3895 
3934 3935 3896 3896 3935 3936 3897 3897 3936 
3937 3898 3898 3937 3938 3899 3899 3938 3939 
3900 3900 3939 3940 3901 3901 3940 3941 3902 
3902 3941 3942 3903 3903 3942 3943 3904 3904 
3943 3944 3905 3905 3944 3945 3906 3906 3945 
3946 3907 3907 3946 3947 3908 3908 3947 3948 
3909 3909 3948 3949 3910 3910 3949 3950 3911 
3911 3950 3951 3912 3912 3951 3952 3913 3913 
3952 3953 3914 3914 3953 3954 3915 3915 3954 
3955 3916 3916 3955 3956 3917 3917 3956 3957 
3918 3918 3957 3958 3919 3919 3958 3959 3920 
3920 3959 3960 3921 3921 3960 3961 3922 3922 
3961 3962 3923 3923 3962 3963 3924 3924 3963 
3964 3925 3925 3964 3965 3926 3926 3965 3966 
3927 3927 3966 3967 3928 3928 3967 3968 3929 
3929 3968 3969 3930 3930 3969 3970 3931 3931 
3970 3971 3932 3932 3971 575 576 89 90 
3972 3933 3933 3972 3973 3934 3934 3973 3974 
3935 3935 3974 3975 3936 3936 3975 3976 3937 
3937 3976 3977 3938 3938 3977 3978 3939 3939 
3978 3979 3940 3940 3979 3980 3941 3941 3980 
3981 3942 3942 3981 3982 3943 3943 3982 3983 
3944 3944 3983 3984 3945 3945 3984 3985 3946 
3946 3985 3986 3947 3947 3986 3987 3948 3948 
3987 3988 3949 3949 3988 3989 3950 3950 3989 
3990 3951 3951 3990 3991 3952 3952 3991 3992 
3953 3953 3992 3993 3954 3954 3993 3994 3955 
3955 3994 3995 3956 3956 3995 3996 3957 3957 
3996 3997 3958 3958 3997 3998 3959 3959 3998 
3999 3960 3960 3999 4000 3961 3961 4000 4001 
3962 3962 4001 4002 3963 3963 4002 4003 3964 
3964 4003 4004 3965 3965 4004 4005 3966 3966 
4005 4006 3967 3967 4006 4007 3968 3968 4007 
4008 3969 3969 4008 4009 3970 3970 4009 4010 
3971 3971 4010 574 575 90 91 4011 3972 
3972 4011 4012 3973 3973 4012 4013 3974 3974 
4013 4014 3975 3975 4014 4015 3976 3976 4015 
4016 3977 3977 4016 4017 3978 3978 4017 4018 
3979 3979 4018 4019 3980 3980 4019 4020 3981 
3981 4020 4021 3982 3982 4021 4022 3983 3983 
4022 4023 3984 3984 4023 4024 3985 3985 4024 
4025 3986 3986 4025 4026 3987 3987 4026 4027 
3988 3988 4027 4028 3989 3989 4028 4029 3990 
3990 4029 4030 3991 3991 4030 4031 3992 3992 
4031 4032 3993 3993 4032 4033 3994 3994 4033 
4034 3995 3995 4034 4035 3996 3996 4035 4036 
3997 3997 4036 4037 3998 3998 4037 4038 3999 
3999 4038 4039 4000 4000 4039 4040 4001 4001 
4040 4041 4002 4002 4041 4042 4003 4003 4042 
4043 4004 4004 4043 4044 4005 4005 4044 4045 
4006 4006 4045 4046 4007 4007 4046 4047 4008 
4008 4047 4048 4009 4009 4048 4049 4010 4010 
4049 573 574 91 92 4050 4011 4011 4050 
4051 4012 4012 4051 4052 4013 4013 4052 4053 
4014 4014 4053 4054 4015 4015 4054 4055 4016 
4016 4055 4056 4017 4017 4056 4057 4018 4018 
4057 4058 4019 4019 4058 4059 4020 4020 4059 
4060 4021 4021 4060 4061 4022 4022 4061 4062 
4023 4023 4062 4063 4024 4024 4063 4064 4025 
4025 4064 4065 4026 4026 4065 4066 4027 4027 
4066 4067 4028 4028 4067 4068 4029 4029 4068 
4069 4030 4030 4069 4070 4031 4031 4070 4071 
4032 4032 4071 4072 4033 4033 4072 4073 4034 
4034 4073 4074 4035 4035 4074 4075 4036 4036 
4075 4076 4037 4037 4076 4077 4038 4038 4077 
4078 4039 4039 4078 4079 4040 4040 4079 4080 
4041 4041 4080 4081 4042 4042 4081 4082 4043 
4043 4082 4083 4044 4044 4083 4084 4045 4045 
4084 4085 4046 4046 4085 4086 4047 4047 4086 
4087 4048 4048 4087 4088 4049 4049 4088 572 
573 92 93 4089 4050 4050 4089 4090 4051 
4051 4090 4091 4052 4052 4091 4092 4053 4053 
4092 4093 4054 4054 4093 4094 4055 4055 4094 
4095 4056 4056 4095 4096 4057 4057 4096 4097 
4058 4058 4097 4098 4059 4059 4098 4099 4060 
4060 4099 4100 4061 4061 4100 4101 4062 4062 
4101 4102 4063 4063 4102 4103 4064 4064 4103 
4104 4065 4065 4104 4105 4066 4066 4105 4106 
4067 4067 4106 4107 4068 4068 4107 4108 4069 
4069 4108 4109 4070 4070 4109 4110 4071 4071 
4110 4111 4072 4072 4111 4112 4073 4073 4112 
4113 4074 4074 4113 4114 4075 4075 4114 4115 
4076 4076 4115 4116 4077 4077 4116 4117 4078 
4078 4117 4118 4079 4079 4118 4119 4080 4080 
4119 4120 4081 4081 4120 4121 4082 4082 4121 
4122 4083 4083 4122 4123 4084 4084 4123 4124 
4085 4085 4124 4125 4086 4086 4125 4126 4087 
4087 4126 4127 4088 4088 4127 571 572 93 
94 4128 4089 4089 4128 4129 4090 4090 4129 
4130 4091 4091 4130 4131 4092 4092 4131 4132 
4093 4093 4132 4133 4094 4094 4133 4134 4095 
4095 4134 4135 4096 4096 4135 4136 4097 4097 
4136 4137 4098 4098 4137 4138 4099 4099 4138 
4139 4100 4100 4139 4140 4101 4101 4140 4141 
4102 4102 4141 4142 4103 4103 4142 4143 4104 
4104 4143 4144 4105 4105 4144 4145 4106 4106 
4145 4146 4107 4107 4146 4147 4108 4108 4147 
4148 4109 4109 4148 4149 4110 4110 4149 4150 
4111 4111 4150 4151 4112 4112 4151 4152 4113 
4113 4152 4153 4114 4114 4153 4154 4115 4115 
4154 4155 4116 4116 4155 4156 4117 4117 4156 
4157 4118 4118 4157 4158 4119 4119 4158 4159 
4120 4120 4159 4160 4121 4121 4160 4161 4122 
4122 4161 4162 4123 4123 4162 4163 4124 4124 
4163 4164 4125 4125 4164 4165 4126 4126 4165 
4166 4127 4127 4166 570 571 94 95 4167 
4128 4128 4167 4168 4129 4129 4168 4169 4130 
4130 4169 4170 4131 4131 4170 4171 4132 4132 
4171 4172 4133 4133 4172 4173 4134 4134 4173 
4174 4135 4135 4174 4175 4136 4136 4175 4176 
4137 4137 4176 4177 4138 4138 4177 4178 4139 
4139 4178 4179 4140 4140 4179 4180 4141 4141 
4180 4181 4142 4142 4181 4182 4143 4143 4182 
4183 4144 4144 4183 4184 4145 4145 4184 4185 
4146 4146 4185 4186 4147 4147 4186 4187 4148 
4148 4187 4188 4149 4149 4188 4189 4150 4150 
4189 4190 4151 4151 4190 4191 4152 4152 4191 
4192 4153 4153 4192 4193 4154 4154 4193 4194 
4155 4155 4194 4195 4156 4156 4195 4196 4157 
4157 4196 4197 4158 4158 4197 4198 4159 4159 
4198 4199 4160 4160 4199 4200 4161 4161 4200 
4201 4162 4162 4201 4202 4163 4163 4202 4203 
4164 4164 4203 4204 4165 4165 4204 4205 4166 
4166 4205 569 570 95 96 4206 4167 4167 
4206 4207 4168 4168 4207 4208 4169 4169 4208 
4209 4170 4170 4209 4210 4171 4171 4210 4211 
4172 4172 4211 4212 4173 4173 4212 4213 4174 
4174 4213 4214 4175 4175 4214 4215 4176 4176 
4215 4216 4177 4177 4216 4217 4178 4178 4217 
4218 4179 4179 4218 4219 4180 4180 4219 4220 
4181 4181 4220 4221 4182 4182 4221 4222 4183 
4183 4222 4223 4184 4184 4223 4224 4185 4185 
4224 4225 4186 4186 4225 4226 4187 4187 4226 
4227 4188 4188 4227 4228 4189 4189 4228 4229 
4190 4190 4229 4230 4191 4191 4230 4231 4192 
4192 4231 4232 4193 4193 4232 4233 4194 4194 
4233 4234 4195 4195 4234 4235 4196 4196 4235 
4236 4197 4197 4236 4237 4198 4198 4237 4238 
4199 4199 4238 4239 4200 4200 4239 4240 4201 
4201 4240 4241 4202 4202 4241 4242 4203 4203 
4242 4243 4204 4204 4243 4244 4205 4205 4244 
568 569 96 97 4245 4206 4206 4245 4246 
4207 4207 4246 4247 4208 4208 4247 4248 4209 
4209 4248 4249 4210 4210 4249 4250 4211 4211 
4250 4251 4212 4212 4251 4252 4213 4213 4252 
4253 4214 4214 4253 4254 4215 4215 4254 4255 
4216 4216 4255 4256 4217 4217 4256 4257 4218 
4218 4257 4258 4219 4219 4258 4259 4220 4220 
4259 4260 4221 4221 4260 4261 4222 4222 4261 
4262 4223 4223 4262 4263 4224 4224 4263 4264 
4225 4225 4264 4265 4226 4226 4265 4266 4227 
4227 4266 4267 4228 4228 4267 4268 4229 4229 
4268 4269 4230 4230 4269 4270 4231 4231 4270 
4271 4232 4232 4271 4272 4233 4233 4272 4273 
4234 4234 4273 4274 4235 4235 4274 4275 4236 
4236 4275 4276 4237 4237 4276 4277 4238 4238 
4277 4278 4239 4239 4278 4279 4240 4240 4279 
4280 4241 4241 4280 4281 4242 4242 4281 4282 
4243 4243 4282 4283 4244 4244 4283 567 568 
97 98 4284 4245 4245 4284 4285 4246 4246 
4285 4286 4247 4247 4286 4287 4248 4248 4287 
4288 4249 4249 4288 4289 4250 4250 4289 4290 
4251 4251 4290 4291 4252 4252 4291 4292 4253 
4253 4292 4293 4254 4254 4293 4294 4255 4255 
4294 4295 4256 4256 4295 4296 4257 4257 4296 
4297 4258 4258 4297 4298 4259 4259 4298 4299 
4260 4260 4299 4300 4261 4261 4300 4301 4262 
4262 4301 4302 4263 4263 4302 4303 4264 4264 
4303 4304 4265 4265 4304 4305 4266 4266 4305 
4306 4267 4267 4306 4307 4268 4268 4307 4308 
4269 4269 4308 4309 4270 4270 4309 4310 4271 
4271 4310 4311 4272 4272 4311 4312 4273 4273 
4312 4313 4274 4274 4313 4314 4275 4275 4314 
4315 4276 4276 4315 4316 4277 4277 4316 4317 
4278 4278 4317 4318 4279 4279 4318 4319 4280 
4280 4319 4320 4281 4281 4320 4321 4282 4282 
4321 4322 4283 4283 4322 566 567 98 99 
4323 4284 4284 4323 4324 4285 4285 4324 4325 
4286 4286 4325 4326 4287 4287 4326 4327 4288 
4288 4327 4328 4289 4289 4328 4329 4290 4290 
4329 4330 4291 4291 4330 4331 4292 4292 4331 
4332 4293 4293 4332 4333 4294 4294 4333 4334 
4295 4295 4334 4335 4296 4296 4335 4336 4297 
4297 4336 4337 4298 4298 4337 4338 4299 4299 
4338 4339 4300 4300 4339 4340 4301 4301 4340 
4341 4302 4302 4341 4342 4303 4303 4342 4343 
4304 4304 4343 4344 4305 4305 4344 4345 4306 
4306 4345 4346 4307 4307 4346 4347 4308 4308 
4347 4348 4309 4309 4348 4349 4310 4310 4349 
4350 4311 4311 4350 4351 4312 4312 4351 4352 
4313 4313 4352 4353 4314 4314 4353 4354 4315 
4315 4354 4355 4316 4316 4355 4356 4317 4317 
4356 4357 4318 4318 4357 4358 4319 4319 4358 
4359 4320 4320 4359 4360 4321 4321 4360 4361 
4322 4322 4361 565 566 99 100 4362 4323 
4323 4362 4363 4324 4324 4363 4364 4325 4325 
4364 4365 4326 4326 4365 4366 4327 4327 4366 
4367 4328 4328 4367 4368 4329 4329 4368 4369 
4330 4330 4369 4370 4331 4331 4370 4371 4332 
4332 4371 4372 4333 4333 4372 4373 4334 4334 
4373 4374 4335 4335 4374 4375 4336 4336 4375 
4376 4337 4337 4376 4377 4338 4338 4377 4378 
4339 4339 4378 4379 4340 4340 4379 4380 4341 
4341 4380 4381 4342 4342 4381 4382 4343 4343 
4382 4383 4344 4344 4383 4384 4345 4345 4384 
4385 4346 4346 4385 4386 4347 4347 4386 4387 
4348 4348 4387 4388 4349 4349 4388 4389 4350 
4350 4389 4390 4351 4351 4390 4391 4352 4352 
4391 4392 4353 4353 4392 4393 4354 4354 4393 
4394 4355 4355 4394 4395 4356 4356 4395 4396 
4357 4357 4396 4397 4358 4358 4397 4398 4359 
4359 4398 4399 4360 4360 4399 4400 4361 4361 
4400 564 565 100 101 4401 4362 4362 4401 
4402 4363 4363 4402 4403 4364 4364 4403 4404 
4365 4365 4404 4405 4366 4366 4405 4406 4367 
4367 4406 4407 4368 4368 4407 4408 4369 4369 
4408 4409 4370 4370 4409 4410 4371 4371 4410 
4411 4372 4372 4411 4412 4373 4373 4412 4413 
4374 4374 4413 4414 4375 4375 4414 4415 4376 
4376 4415 4416 4377 4377 4416 4417 4378 4378 
4417 4418 4379 4379 4418 4419 4380 4380 4419 
4420 4381 4381 4420 4421 4382 4382 4421 4422 
4383 4383 4422 4423 4384 4384 4423 4424 4385 
4385 4424 4425 4386 4386 4425 4426 4387 4387 
4426 4427 4388 4388 4427 4428 4389 4389 4428 
4429 4390 4390 4429 4430 4391 4391 4430 4431 
4392 4392 4431 4432 4393 4393 4432 4433 4394 
4394 4433 4434 4395 4395 4434 4435 4396 4396 
4435 4436 4397 4397 4436 4437 4398 4398 4437 
4438 4399 4399 4438 4439 4400 4400 4439 563 
564 101 102 4440 4401 4401 4440 4441 4402 
4402 4441 4442 4403 4403 4442 4443 4404 4404 
4443 4444 4405 4405 4444 4445 4406 4406 4445 
4446 4407 4407 4446 4447 4408 4408 4447 4448 
4409 4409 4448 4449 4410 4410 4449 4450 4411 
4411 4450 4451 4412 4412 4451 4452 4413 4413 
4452 4453 4414 4414 4453 4454 4415 4415 4454 
4455 4416 4416 4455 4456 4417 4417 4456 4457 
4418 4418 4457 4458 4419 4419 4458 4459 4420 
4420 4459 4460 4421 4421 4460 4461 4422 4422 
4461 4462 4423 4423 4462 4463 4424 4424 4463 
4464 4425 4425 4464 4465 4426 4426 4465 4466 
4427 4427 4466 4467 4428 4428 4467 4468 4429 
4429 4468 4469 4430 4430 4469 4470 4431 4431 
4470 4471 4432 4432 4471 4472 4433 4433 4472 
4473 4434 4434 4473 4474 4435 4435 4474 4475 
4436 4436 4475 4476 4437 4437 4476 4477 4438 
4438 4477 4478 4439 4439 4478 562 563 102 
103 4479 4440 4440 4479 4480 4441 4441 4480 
4481 4442 4442 4481 4482 4443 4443 4482 4483 
4444 4444 4483 4484 4445 4445 4484 4485 4446 
4446 4485 4486 4447 4447 4486 4487 4448 4448 
4487 4488 4449 4449 4488 4489 4450 4450 4489 
4490 4451 4451 4490 4491 4452 4452 4491 4492 
4453 4453 4492 4493 4454 4454 4493 4494 4455 
4455 4494 4495 4456 4456 4495 4496 4457 4457 
4496 4497 4458 4458 4497 4498 4459 4459 4498 
4499 4460 4460 4499 4500 4461 4461 4500 4501 
4462 4462 4501 4502 4463 4463 4502 4503 4464 
4464 4503 4504 4465 4465 4504 4505 4466 4466 
4505 4506 4467 4467 4506 4507 4468 4468 4507 
4508 4469 4469 4508 4509 4470 4470 4509 4510 
4471 4471 4510 4511 4472 4472 4511 4512 4473 
4473 4512 4513 4474 4474 4513 4514 4475 4475 
4514 4515 4476 4476 4515 4516 4477 4477 4516 
4517 4478 4478 4517 561 562 103 104 4518 
4479 4479 4518 4519 4480 4480 4519 4520 4481 
4481 4520 4521 4482 4482 4521 4522 4483 4483 
4522 4523 4484 4484 4523 4524 4485 4485 4524 
4525 4486 4486 4525 4526 4487 4487 4526 4527 
4488 4488 4527 4528 4489 4489 4528 4529 4490 
4490 4529 4530 4491 4491 4530 4531 4492 4492 
4531 4532 4493 4493 4532 4533 4494 4494 4533 
4534 4495 4495 4534 4535 4496 4496 4535 4536 
4497 4497 4536 4537 4498 4498 4537 4538 4499 
4499 4538 4539 4500 4500 4539 4540 4501 4501 
4540 4541 4502 4502 4541 4542 4503 4503 4542 
4543 4504 4504 4543 4544 4505 4505 4544 4545 
4506 4506 4545 4546 4507 4507 4546 4547 4508 
4508 4547 4548 4509 4509 4548 4549 4510 4510 
4549 4550 4511 4511 4550 4551 4512 4512 4551 
4552 4513 4513 4552 4553 4514 4514 4553 4554 
4515 4515 4554 4555 4516 4516 4555 4556 4517 
4517 4556 560 561 104 105 4557 4518 4518 
4557 4558 4519 4519 4558 4559 4520 4520 4559 
4560 4521 4521 4560 4561 4522 4522 4561 4562 
4523 4523 4562 4563 4524 4524 4563 4564 4525 
4525 4564 4565 4526 4526 4565 4566 4527 4527 
4566 4567 4528 4528 4567 4568 4529 4529 4568 
4569 4530 4530 4569 4570 4531 4531 4570 4571 
4532 4532 4571 4572 4533 4533 4572 4573 4534 
4534 4573 4574 4535 4535 4574 4575 4536 4536 
4575 4576 4537 4537 4576 4577 4538 4538 4577 
4578 4539 4539 4578 4579 4540 4540 4579 4580 
4541 4541 4580 4581 4542 4542 4581 4582 4543 
4543 4582 4583 4544 4544 4583 4584 4545 4545 
4584 4585 4546 4546 4585 4586 4547 4547 4586 
4587 4548 4548 4587 4588 4549 4549 4588 4589 
4550 4550 4589 4590 4551 4551 4590 4591 4552 
4552 4591 4592 4553 4553 4592 4593 4554 4554 
4593 4594 4555 4555 4594 4595 4556 4556 4595 
559 560 105 106 4596 4557 4557 4596 4597 
4558 4558 4597 4598 4559 4559 4598 4599 4560 
4560 4599 4600 4561 4561 4600 4601 4562 4562 
4601 4602 4563 4563 4602 4603 4564 4564 4603 
4604 4565 4565 4604 4605 4566 4566 4605 4606 
4567 4567 4606 4607 4568 4568 4607 4608 4569 
4569 4608 4609 4570 4570 4609 4610 4571 4571 
4610 4611 4572 4572 4611 4612 4573 4573 4612 
4613 4574 4574 4613 4614 4575 4575 4614 4615 
4576 4576 4615 4616 4577 4577 4616 4617 4578 
4578 4617 4618 4579 4579 4618 4619 4580 4580 
4619 4620 4581 4581 4620 4621 4582 4582 4621 
4622 4583 4583 4622 4623 4584 4584 4623 4624 
4585 4585 4624 4625 4586 4586 4625 4626 4587 
4587 4626 4627 4588 4588 4627 4628 4589 4589 
4628 4629 4590 4590 4629 4630 4591 4591 4630 
4631 4592 4592 4631 4632 4593 4593 4632 4633 
4594 4594 4633 4634 4595 4595 4634 558 559 
106 107 4635 4596 4596 4635 4636 4597 4597 
4636 4637 4598 4598 4637 4638 4599 4599 4638 
4639 4600 4600 4639 4640 4601 4601 4640 4641 
4602 4602 4641 4642 4603 4603 4642 4643 4604 
4604 4643 4644 4605 4605 4644 4645 4606 4606 
4645 4646 4607 4607 4646 4647 4608 4608 4647 
4648 4609 4609 4648 4649 4610 4610 4649 4650 
4611 4611 4650 4651 4612 4612 4651 4652 4613 
4613 4652 4653 4614 4614 4653 4654 4615 4615 
4654 4655 4616 4616 4655 4656 4617 4617 4656 
4657 4618 4618 4657 4658 4619 4619 4658 4659 
4620 4620 4659 4660 4621 4621 4660 4661 4622 
4622 4661 4662 4623 4623 4662 4663 4624 4624 
4663 4664 4625 4625 4664 4665 4626 4626 4665 
4666 4627 4627 4666 4667 4628 4628 4667 4668 
4629 4629 4668 4669 4630 4630 4669 4670 4631 
4631 4670 4671 4632 4632 4671 4672 4633 4633 
4672 4673 4634 4634 4673 557 558 107 108 
4674 4635 4635 4674 4675 4636 4636 4675 4676 
4637 4637 4676 4677 4638 4638 4677 4678 4639 
4639 4678 4679 4640 4640 4679 4680 4641 4641 
4680 4681 4642 4642 4681 4682 4643 4643 4682 
4683 4644 4644 4683 4684 4645 4645 4684 4685 
4646 4646 4685 4686 4647 4647 4686 4687 4648 
4648 4687 4688 4649 4649 4688 4689 4650 4650 
4689 4690 4651 4651 4690 4691 4652 4652 4691 
4692 4653 4653 4692 4693 4654 4654 4693 4694 
4655 4655 4694 4695 4656 4656 4695 4696 4657 
4657 4696 4697 4658 4658 4697 4698 4659 4659 
4698 4699 4660 4660 4699 4700 4661 4661 4700 
4701 4662 4662 4701 4702 4663 4663 4702 4703 
4664 4664 4703 4704 4665 4665 4704 4705 4666 
4666 4705 4706 4667 4667 4706 4707 4668 4668 
4707 4708 4669 4669 4708 4709 4670 4670 4709 
4710 4671 4671 4710 4711 4672 4672 4711 4712 
4673 4673 4712 556 557 108 109 4713 4674 
4674 4713 4714 4675 4675 4714 4715 4676 4676 
4715 4716 4677 4677 4716 4717 4678 4678 4717 
4718 4679 4679 4718 4719 4680 4680 4719 4720 
4681 4681 4720 4721 4682 4682 4721 4722 4683 
4683 4722 4723 4684 4684 4723 4724 4685 4685 
4724 4725 4686 4686 4725 4726 4687 4687 4726 
4727 4688 4688 4727 4728 4689 4689 4728 4729 
4690 4690 4729 4730 4691 4691 4730 4731 4692 
4692 4731 4732 4693 4693 4732 4733 4694 4694 
4733 4734 4695 4695 4734 4735 4696 4696 4735 
4736 4697 4697 4736 4737 4698 4698 4737 4738 
4699 4699 4738 4739 4700 4700 4739 4740 4701 
4701 4740 4741 4702 4702 4741 4742 4703 4703 
4742 4743 4704 4704 4743 4744 4705 4705 4744 
4745 4706 4706 4745 4746 4707 4707 4746 4747 
4708 4708 4747 4748 4709 4709 4748 4749 4710 
4710 4749 4750 4711 4711 4750 4751 4712 4712 
4751 555 556 109 110 4752 4713 4713 4752 
4753 4714 4714 4753 4754 4715 4715 4754 4755 
4716 4716 4755 4756 4717 4717 4756 4757 4718 
4718 4757 4758 4719 4719 4758 4759 4720 4720 
4759 4760 4721 4721 4760 4761 4722 4722 4761 
4762 4723 4723 4762 4763 4724 4724 4763 4764 
4725 4725 4764 4765 4726 4726 4765 4766 4727 
4727 4766 4767 4728 4728 4767 4768 4729 4729 
4768 4769 4730 4730 4769 4770 4731 4731 4770 
4771 4732 4732 4771 4772 4733 4733 4772 4773 
4734 4734 4773 4774 4735 4735 4774 4775 4736 
4736 4775 4776 4737 4737 4776 4777 4738 4738 
4777 4778 4739 4739 4778 4779 4740 4740 4779 
4780 4741 4741 4780 4781 4742 4742 4781 4782 
4743 4743 4782 4783 4744 4744 4783 4784 4745 
4745 4784 4785 4746 4746 4785 4786 4747 4747 
4786 4787 4748 4748 4787 4788 4749 4749 4788 
4789 4750 4750 4789 4790 4751 4751 4790 554 
555 110 111 4791 4752 4752 4791 4792 4753 
4753 4792 4793 4754 4754 4793 4794 4755 4755 
4794 4795 4756 4756 4795 4796 4757 4757 4796 
4797 4758 4758 4797 4798 4759 4759 4798 4799 
4760 4760 4799 4800 4761 4761 4800 4801 4762 
4762 4801 4802 4763 4763 4802 4803 4764 4764 
4803 4804 4765 4765 4804 4805 4766 4766 4805 
4806 4767 4767 4806 4807 4768 4768 4807 4808 
4769 4769 4808 4809 4770 4770 4809 4810 4771 
4771 4810 4811 4772 4772 4811 4812 4773 4773 
4812 4813 4774 4774 4813 4814 4775 4775 4814 
4815 4776 4776 4815 4816 4777 4777 4816 4817 
4778 4778 4817 4818 4779 4779 4818 4819 4780 
4780 4819 4820 4781 4781 4820 4821 4782 4782 
4821 4822 4783 4783 4822 4823 4784 4784 4823 
4824 4785 4785 4824 4825 4786 4786 4825 4826 
4787 4787 4826 4827 4788 4788 4827 4828 4789 
4789 4828 4829 4790 4790 4829 553 554 111 
112 4830 4791 4791 4830 4831 4792 4792 4831 
4832 4793 4793 4832 4833 4794 4794 4833 4834 
4795 4795 4834 4835 4796 4796 4835 4836 4797 
4797 4836 4837 4798 4798 4837 4838 4799 4799 
4838 4839 4800 4800 4839 4840 4801 4801 4840 
4841 4802 4802 4841 4842 4803 4803 4842 4843 
4804 4804 4843 4844 4805 4805 4844 4845 4806 
4806 4845 4846 4807 4807 4846 4847 4808 4808 
4847 4848 4809 4809 4848 4849 4810 4810 4849 
4850 4811 4811 4850 4851 4812 4812 4851 4852 
4813 4813 4852 4853 4814 4814 4853 4854 4815 
4815 4854 4855 4816 4816 4855 4856 4817 4817 
4856 4857 4818 4818 4857 4858 4819 4819 4858 
4859 4820 4820 4859 4860 4821 4821 4860 4861 
4822 4822 4861 4862 4823 4823 4862 4863 4824 
4824 4863 4864 4825 4825 4864 4865 4826 4826 
4865 4866 4827 4827 4866 4867 4828 4828 4867 
4868 4829 4829 4868 552 553 112 113 4869 
4830 4830 4869 4870 4831 4831 4870 4871 4832 
4832 4871 4872 4833 4833 4872 4873 4834 4834 
4873 4874 4835 4835 4874 4875 4836 4836 4875 
4876 4837 4837 4876 4877 4838 4838 4877 4878 
4839 4839 4878 4879 4840 4840 4879 4880 4841 
4841 4880 4881 4842 4842 4881 4882 4843 4843 
4882 4883 4844 4844 4883 4884 4845 4845 4884 
4885 4846 4846 4885 4886 4847 4847 4886 4887 
4848 4848 4887 4888 4849 4849 4888 4889 4850 
4850 4889 4890 4851 4851 4890 4891 4852 4852 
4891 4892 4853 4853 4892 4893 4854 4854 4893 
4894 4855 4855 4894 4895 4856 4856 4895 4896 
4857 4857 4896 4897 4858 4858 4897 4898 4859 
4859 4898 4899 4860 4860 4899 4900 4861 4861 
4900 4901 4862 4862 4901 4902 4863 4863 4902 
4903 4864 4864 4903 4904 4865 4865 4904 4905 
4866 4866 4905 4906 4867 4867 4906 4907 4868 
4868 4907 551 552 113 114 4908 4869 4869 
4908 4909 4870 4870 4909 4910 4871 4871 4910 
4911 4872 4872 4911 4912 4873 4873 4912 4913 
4874 4874 4913 4914 4875 4875 4914 4915 4876 
4876 4915 4916 4877 4877 4916 4917 4878 4878 
4917 4918 4879 4879 4918 4919 4880 4880 4919 
4920 4881 4881 4920 4921 4882 4882 4921 4922 
4883 4883 4922 4923 4884 4884 4923 4924 4885 
4885 4924 4925 4886 4886 4925 4926 4887 4887 
4926 4927 4888 4888 4927 4928 4889 4889 4928 
4929 4890 4890 4929 4930 4891 4891 4930 4931 
4892 4892 4931 4932 4893 4893 4932 4933 4894 
4894 4933 4934 4895 4895 4934 4935 4896 4896 
4935 4936 4897 4897 4936 4937 4898 4898 4937 
4938 4899 4899 4938 4939 4900 4900 4939 4940 
4901 4901 4940 4941 4902 4902 4941 4942 4903 
4903 4942 4943 4904 4904 4943 4944 4905 4905 
4944 4945 4906 4906 4945 4946 4907 4907 4946 
550 551 114 115 4947 4908 4908 4947 4948 
4909 4909 4948 4949 4910 4910 4949 4950 4911 
4911 4950 4951 4912 4912 4951 4952 4913 4913 
4952 4953 4914 4914 4953 4954 4915 4915 4954 
4955 4916 4916 4955 4956 4917 4917 4956 4957 
4918 4918 4957 4958 4919 4919 4958 4959 4920 
4920 4959 4960 4921 4921 4960 4961 4922 4922 
4961 4962 4923 4923 4962 4963 4924 4924 4963 
4964 4925 4925 4964 4965 4926 4926 4965 4966 
4927 4927 4966 4967 4928 4928 4967 4968 4929 
4929 4968 4969 4930 4930 4969 4970 4931 4931 
4970 4971 4932 4932 4971 4972 4933 4933 4972 
4973 4934 4934 4973 4974 4935 4935 4974 4975 
4936 4936 4975 4976 4937 4937 4976 4977 4938 
4938 4977 4978 4939 4939 4978 4979 4940 4940 
4979 4980 4941 4941 4980 4981 4942 4942 4981 
4982 4943 4943 4982 4983 4944 4944 4983 4984 
4945 4945 4984 4985 4946 4946 4985 549 550 
115 116 4986 4947 4947 4986 4987 4948 4948 
4987 4988 4949 4949 4988 4989 4950 4950 4989 
4990 4951 4951 4990 4991 4952 4952 4991 4992 
4953 4953 4992 4993 4954 4954 4993 4994 4955 
4955 4994 4995 4956 4956 4995 4996 4957 4957 
4996 4997 4958 4958 4997 4998 4959 4959 4998 
4999 4960 4960 4999 5000 4961 4961 5000 5001 
4962 4962 5001 5002 4963 4963 5002 5003 4964 
4964 5003 5004 4965 4965 5004 5005 4966 4966 
5005 5006 4967 4967 5006 5007 4968 4968 5007 
5008 4969 4969 5008 5009 4970 4970 5009 5010 
4971 4971 5010 5011 4972 4972 5011 5012 4973 
4973 5012 5013 4974 4974 5013 5014 4975 4975 
5014 5015 4976 4976 5015 5016 4977 4977 5016 
5017 4978 4978 5017 5018 4979 4979 5018 5019 
4980 4980 5019 5020 4981 4981 5020 5021 4982 
4982 5021 5022 4983 4983 5022 5023 4984 4984 
5023 5024 4985 4985 5024 548 549 116 117 
5025 4986 4986 5025 5026 4987 4987 5026 5027 
4988 4988 5027 5028 4989 4989 5028 5029 4990 
4990 5029 5030 4991 4991 5030 5031 4992 4992 
5031 5032 4993 4993 5032 5033 4994 4994 5033 
5034 4995 4995 5034 5035 4996 4996 5035 5036 
4997 4997 5036 5037 4998 4998 5037 5038 4999 
4999 5038 5039 5000 5000 5039 5040 5001 5001 
5040 5041 5002 5002 5041 5042 5003 5003 5042 
5043 5004 5004 5043 5044 5005 5005 5044 5045 
5006 5006 5045 5046 5007 5007 5046 5047 5008 
5008 5047 5048 5009 5009 5048 5049 5010 5010 
5049 5050 5011 5011 5050 5051 5012 5012 5051 
5052 5013 5013 5052 5053 5014 5014 5053 5054 
5015 5015 5054 5055 5016 5016 5055 5056 5017 
5017 5056 5057 5018 5018 5057 5058 5019 5019 
5058 5059 5020 5020 5059 5060 5021 5021 5060 
5061 5022 5022 5061 5062 5023 5023 5062 5063 
5024 5024 5063 547 548 117 118 5064 5025 
5025 5064 5065 5026 5026 5065 5066 5027 5027 
5066 5067 5028 5028 5067 5068 5029 5029 5068 
5069 5030 5030 5069 5070 5031 5031 5070 5071 
5032 5032 5071 5072 5033 5033 5072 5073 5034 
5034 5073 5074 5035 5035 5074 5075 5036 5036 
5075 5076 5037 5037 5076 5077 5038 5038 5077 
5078 5039 5039 5078 5079 5040 5040 5079 5080 
5041 5041 5080 5081 5042 5042 5081 5082 5043 
5043 5082 5083 5044 5044 5083 5084 5045 5045 
5084 5085 5046 5046 5085 5086 5047 5047 5086 
5087 5048 5048 5087 5088 5049 5049 5088 5089 
5050 5050 5089 5090 5051 5051 5090 5091 5052 
5052 5091 5092 5053 5053 5092 5093 5054 5054 
5093 5094 5055 5055 5094 5095 5056 5056 5095 
5096 5057 5057 5096 5097 5058 5058 5097 5098 
5059 5059 5098 5099 5060 5060 5099 5100 5061 
5061 5100 5101 5062 5062 5101 5102 5063 5063 
5102 546 547 118 119 5103 5064 5064 5103 
5104 5065 5065 5104 5105 5066 5066 5105 5106 
5067 5067 5106 5107 5068 5068 5107 5108 5069 
5069 5108 5109 5070 5070 5109 5110 5071 5071 
5110 5111 5072 5072 5111 5112 5073 5073 5112 
5113 5074 5074 5113 5114 5075 5075 5114 5115 
5076 5076 5115 5116 5077 5077 5116 5117 5078 
5078 5117 5118 5079 5079 5118 5119 5080 5080 
5119 5120 5081 5081 5120 5121 5082 5082 5121 
5122 5083 5083 5122 5123 5084 5084 5123 5124 
5085 5085 5124 5125 5086 5086 5125 5126 5087 
5087 5126 5127 5088 5088 5127 5128 5089 5089 
5128 5129 5090 5090 5129 5130 5091 5091 5130 
5131 5092 5092 5131 5132 5093 5093 5132 5133 
5094 5094 5133 5134 5095 5095 5134 5135 5096 
5096 5135 5136 5097 5097 5136 5137 5098 5098 
5137 5138 5099 5099 5138 5139 5100 5100 5139 
5140 5101 5101 5140 5141 5102 5102 5141 545 
546 119 120 5142 5103 5103 5142 5143 5104 
5104 5143 5144 5105 5105 5144 5145 5106 5106 
5145 5146 5107 5107 5146 5147 5108 5108 5147 
5148 5109 5109 5148 5149 5110 5110 5149 5150 
5111 5111 5150 5151 5112 5112 5151 5152 5113 
5113 5152 5153 5114 5114 5153 5154 5115 5115 
5154 5155 5116 5116 5155 5156 5117 5117 5156 
5157 5118 5118 5157 5158 5119 5119 5158 5159 
5120 5120 5159 5160 5121 5121 5160 5161 5122 
5122 5161 5162 5123 5123 5162 5163 5124 5124 
5163 5164 5125 5125 5164 5165 5126 5126 5165 
5166 5127 5127 5166 5167 5128 5128 5167 5168 
5129 5129 5168 5169 5130 5130 5169 5170 5131 
5131 5170 5171 5132 5132 5171 5172 5133 5133 
5172 5173 5134 5134 5173 5174 5135 5135 5174 
5175 5136 5136 5175 5176 5137 5137 5176 5177 
5138 5138 5177 5178 5139 5139 5178 5179 5140 
5140 5179 5180 5141 5141 5180 544 545 120 
121 5181 5142 5142 5181 5182 5143 5143 5182 
5183 5144 5144 5183 5184 5145 5145 5184 5185 
5146 5146 5185 5186 5147 5147 5186 5187 5148 
5148 5187 5188 5149 5149 5188 5189 5150 5150 
5189 5190 5151 5151 5190 5191 5152 5152 5191 
5192 5153 5153 5192 5193 5154 5154 5193 5194 
5155 5155 5194 5195 5156 5156 5195 5196 5157 
5157 5196 5197 5158 5158 5197 5198 5159 5159 
5198 5199 5160 5160 5199 5200 5161 5161 5200 
5201 5162 5162 5201 5202 5163 5163 5202 5203 
5164 5164 5203 5204 5165 5165 5204 5205 5166 
5166 5205 5206 5167 5167 5206 5207 5168 5168 
5207 5208 5169 5169 5208 5209 5170 5170 5209 
5210 5171 5171 5210 5211 5172 5172 5211 5212 
5173 5173 5212 5213 5174 5174 5213 5214 5175 
5175 5214 5215 5176 5176 5215 5216 5177 5177 
5216 5217 5178 5178 5217 5218 5179 5179 5218 
5219 5180 5180 5219 543 544 121 122 5220 
5181 5181 5220 5221 5182 5182 5221 5222 5183 
5183 5222 5223 5184 5184 5223 5224 5185 5185 
5224 5225 5186 5186 5225 5226 5187 5187 5226 
5227 5188 5188 5227 5228 5189 5189 5228 5229 
5190 5190 5229 5230 5191 5191 5230 5231 5192 
5192 5231 5232 5193 5193 5232 5233 5194 5194 
5233 5234 5195 5195 5234 5235 5196 5196 5235 
5236 5197 5197 5236 5237 5198 5198 5237 5238 
5199 5199 5238 5239 5200 5200 5239 5240 5201 
5201 5240 5241 5202 5202 5241 5242 5203 5203 
5242 5243 5204 5204 5243 5244 5205 5205 5244 
5245 5206 5206 5245 5246 5207 5207 5246 5247 
5208 5208 5247 5248 5209 5209 5248 5249 5210 
5210 5249 5250 5211 5211 5250 5251 5212 5212 
5251 5252 5213 5213 5252 5253 5214 5214 5253 
5254 5215 5215 5254 5255 5216 5216 5255 5256 
5217 5217 5256 5257 5218 5218 5257 5258 5219 
5219 5258 542 543 122 123 5259 5220 5220 
5259 5260 5221 5221 5260 5261 5222 5222 5261 
5262 5223 5223 5262 5263 5224 5224 5263 5264 
5225 5225 5264 5265 5226 5226 5265 5266 5227 
5227 5266 5267 5228 5228 5267 5268 5229 5229 
5268 5269 5230 5230 5269 5270 5231 5231 5270 
5271 5232 5232 5271 5272 5233 5233 5272 5273 
5234 5234 5273 5274 5235 5235 5274 5275 5236 
5236 5275 5276 5237 5237 5276 5277 5238 5238 
5277 5278 5239 5239 5278 5279 5240 5240 5279 
5280 5241 5241 5280 5281 5242 5242 5281 5282 
5243 5243 5282 5283 5244 5244 5283 5284 5245 
5245 5284 5285 5246 5246 5285 5286 5247 5247 
5286 5287 5248 5248 5287 5288 5249 5249 5288 
5289 5250 5250 5289 5290 5251 5251 5290 5291 
5252 5252 5291 5292 5253 5253 5292 5293 5254 
5254 5293 5294 5255 5255 5294 5295 5256 5256 
5295 5296 5257 5257 5296 5297 5258 5258 5297 
541 542 123 124 5298 5259 5259 5298 5299 
5260 5260 5299 5300 5261 5261 5300 5301 5262 
5262 5301 5302 5263 5263 5302 5303 5264 5264 
5303 5304 5265 5265 5304 5305 5266 5266 5305 
5306 5267 5267 5306 5307 5268 5268 5307 5308 
5269 5269 5308 5309 5270 5270 5309 5310 5271 
5271 5310 5311 5272 5272 5311 5312 5273 5273 
5312 5313 5274 5274 5313 5314 5275 5275 5314 
5315 5276 5276 5315 5316 5277 5277 5316 5317 
5278 5278 5317 5318 5279 5279 5318 5319 5280 
5280 5319 5320 5281 5281 5320 5321 5282 5282 
5321 5322 5283 5283 5322 5323 5284 5284 5323 
5324 5285 5285 5324 5325 5286 5286 5325 5326 
5287 5287 5326 5327 5288 5288 5327 5328 5289 
5289 5328 5329 5290 5290 5329 5330 5291 5291 
5330 5331 5292 5292 5331 5332 5293 5293 5332 
5333 5294 5294 5333 5334 5295 5295 5334 5335 
5296 5296 5335 5336 5297 5297 5336 540 541 
124 125 5337 5298 5298 5337 5338 5299 5299 
5338 5339 5300 5300 5339 5340 5301 5301 5340 
5341 5302 5302 5341 5342 5303 5303 5342 5343 
5304 5304 5343 5344 5305 5305 5344 5345 5306 
5306 5345 5346 5307 5307 5346 5347 5308 5308 
5347 5348 5309 5309 5348 5349 5310 5310 5349 
5350 5311 5311 5350 5351 5312 5312 5351 5352 
5313 5313 5352 5353 5314 5314 5353 5354 5315 
5315 5354 5355 5316 5316 5355 5356 5317 5317 
5356 5357 5318 5318 5357 5358 5319 5319 5358 
5359 5320 5320 5359 5360 5321 5321 5360 5361 
5322 5322 5361 5362 5323 5323 5362 5363 5324 
5324 5363 5364 5325 5325 5364 5365 5326 5326 
5365 5366 5327 5327 5366 5367 5328 5328 5367 
5368 5329 5329 5368 5369 5330 5330 5369 5370 
5331 5331 5370 5371 5332 5332 5371 5372 5333 
5333 5372 5373 5334 5334 5373 5374 5335 5335 
5374 5375 5336 5336 5375 539 540 125 126 
5376 5337 5337 5376 5377 5338 5338 5377 5378 
5339 5339 5378 5379 5340 5340 5379 5380 5341 
5341 5380 5381 5342 5342 5381 5382 5343 5343 
5382 5383 5344 5344 5383 5384 5345 5345 5384 
5385 5346 5346 5385 5386 5347 5347 5386 5387 
5348 5348 5387 5388 5349 5349 5388 5389 5350 
5350 5389 5390 5351 5351 5390 5391 5352 5352 
5391 5392 5353 5353 5392 5393 5354 5354 5393 
5394 5355 5355 5394 5395 5356 5356 5395 5396 
5357 5357 5396 5397 5358 5358 5397 5398 5359 
5359 5398 5399 5360 5360 5399 5400 5361 5361 
5400 5401 5362 5362 5401 5402 5363 5363 5402 
5403 5364 5364 5403 5404 5365 5365 5404 5405 
5366 5366 5405 5406 5367 5367 5406 5407 5368 
5368 5407 5408 5369 5369 5408 5409 5370 5370 
5409 5410 5371 5371 5410 5411 5372 5372 5411 
5412 5373 5373 5412 5413 5374 5374 5413 5414 
5375 5375 5414 538 539 126 127 5415 5376 
5376 5415 5416 5377 5377 5416 5417 5378 5378 
5417 5418 5379 5379 5418 5419 5380 5380 5419 
5420 5381 5381 5420 5421 5382 5382 5421 5422 
5383 5383 5422 5423 5384 5384 5423 5424 5385 
5385 5424 5425 5386 5386 5425 5426 5387 5387 
5426 5427 5388 5388 5427 5428 5389 5389 5428 
5429 5390 5390 5429 5430 5391 5391 5430 5431 
5392 5392 5431 5432 5393 5393 5432 5433 5394 
5394 5433 5434 5395 5395 5434 5435 5396 5396 
5435 5436 5397 5397 5436 5437 5398 5398 5437 
5438 5399 5399 5438 5439 5400 5400 5439 5440 
5401 5401 5440 5441 5402 5402 5441 5442 5403 
5403 5442 5443 5404 5404 5443 5444 5405 5405 
5444 5445 5406 5406 5445 5446 5407 5407 5446 
5447 5408 5408 5447 5448 5409 5409 5448 5449 
5410 5410 5449 5450 5411 5411 5450 5451 5412 
5412 5451 5452 5413 5413 5452 5453 5414 5414 
5453 537 538 127 128 5454 5415 5415 5454 
5455 5416 5416 5455 5456 5417 5417 5456 5457 
5418 5418 5457 5458 5419 5419 5458 5459 5420 
5420 5459 5460 5421 5421 5460 5461 5422 5422 
5461 5462 5423 5423 5462 5463 5424 5424 5463 
5464 5425 5425 5464 5465 5426 5426 5465 5466 
5427 5427 5466 5467 5428 5428 5467 5468 5429 
5429 5468 5469 5430 5430 5469 5470 5431 5431 
5470 5471 5432 5432 5471 5472 5433 5433 5472 
5473 5434 5434 5473 5474 5435 5435 5474 5475 
5436 5436 5475 5476 5437 5437 5476 5477 5438 
5438 5477 5478 5439 5439 5478 5479 5440 5440 
5479 5480 5441 5441 5480 5481 5442 5442 5481 
5482 5443 5443 5482 5483 5444 5444 5483 5484 
5445 5445 5484 5485 5446 5446 5485 5486 5447 
5447 5486 5487 5448 5448 5487 5488 5449 5449 
5488 5489 5450 5450 5489 5490 5451 5451 5490 
5491 5452 5452 5491 5492 5453 5453 5492 536 
537 128 129 5493 5454 5454 5493 5494 5455 
5455 5494 5495 5456 5456 5495 5496 5457 5457 
5496 5497 5458 5458 5497 5498 5459 5459 5498 
5499 5460 5460 5499 5500 5461 5461 5500 5501 
5462 5462 5501 5502 5463 5463 5502 5503 5464 
5464 5503 5504 5465 5465 5504 5505 5466 5466 
5505 5506 5467 5467 5506 5507 5468 5468 5507 
5508 5469 5469 5508 5509 5470 5470 5509 5510 
5471 5471 5510 5511 5472 5472 5511 5512 5473 
5473 5512 5513 5474 5474 5513 5514 5475 5475 
5514 5515 5476 5476 5515 5516 5477 5477 5516 
5517 5478 5478 5517 5518 5479 5479 5518 5519 
5480 5480 5519 5520 5481 5481 5520 5521 5482 
5482 5521 5522 5483 5483 5522 5523 5484 5484 
5523 5524 5485 5485 5524 5525 5486 5486 5525 
5526 5487 5487 5526 5527 5488 5488 5527 5528 
5489 5489 5528 5529 5490 5490 5529 5530 5491 
5491 5530 5531 5492 5492 5531 535 536 129 
130 5532 5493 5493 5532 5533 5494 5494 5533 
5534 5495 5495 5534 5535 5496 5496 5535 5536 
5497 5497 5536 5537 5498 5498 5537 5538 5499 
5499 5538 5539 5500 5500 5539 5540 5501 5501 
5540 5541 5502 5502 5541 5542 5503 5503 5542 
5543 5504 5504 5543 5544 5505 5505 5544 5545 
5506 5506 5545 5546 5507 5507 5546 5547 5508 
5508 5547 5548 5509 5509 5548 5549 5510 5510 
5549 5550 5511 5511 5550 5551 5512 5512 5551 
5552 5513 5513 5552 5553 5514 5514 5553 5554 
5515 5515 5554 5555 5516 5516 5555 5556 5517 
5517 5556 5557 5518 5518 5557 5558 5519 5519 
5558 5559 5520 5520 5559 5560 5521 5521 5560 
5561 5522 5522 5561 5562 5523 5523 5562 5563 
5524 5524 5563 5564 5525 5525 5564 5565 5526 
5526 5565 5566 5527 5527 5566 5567 5528 5528 
5567 5568 5529 5529 5568 5569 5530 5530 5569 
5570 5531 5531 5570 534 535 130 131 5571 
5532 5532 5571 5572 5533 5533 5572 5573 5534 
5534 5573 5574 5535 5535 5574 5575 5536 5536 
5575 5576 5537 5537 5576 5577 5538 5538 5577 
5578 5539 5539 5578 5579 5540 5540 5579 5580 
5541 5541 5580 5581 5542 5542 5581 5582 5543 
5543 5582 5583 5544 5544 5583 5584 5545 5545 
5584 5585 5546 5546 5585 5586 5547 5547 5586 
5587 5548 5548 5587 5588 5549 5549 5588 5589 
5550 5550 5589 5590 5551 5551 5590 5591 5552 
5552 5591 5592 5553 5553 5592 5593 5554 5554 
5593 5594 5555 5555 5594 5595 5556 5556 5595 
5596 5557 5557 5596 5597 5558 5558 5597 5598 
5559 5559 5598 5599 5560 5560 5599 5600 5561 
5561 5600 5601 5562 5562 5601 5602 5563 5563 
5602 5603 5564 5564 5603 5604 5565 5565 5604 
5605 5566 5566 5605 5606 5567 5567 5606 5607 
5568 5568 5607 5608 5569 5569 5608 5609 5570 
5570 5609 533 534 131 132 5610 5571 5571 
5610 5611 5572 5572 5611 5612 5573 5573 5612 
5613 5574 5574 5613 5614 5575 5575 5614 5615 
5576 5576 5615 5616 5577 5577 5616 5617 5578 
5578 5617 5618 5579 5579 5618 5619 5580 5580 
5619 5620 5581 5581 5620 5621 5582 5582 5621 
5622 5583 5583 5622 5623 5584 5584 5623 5624 
5585 5585 5624 5625 5586 5586 5625 5626 5587 
5587 5626 5627 5588 5588 5627 5628 5589 5589 
5628 5629 5590 5590 5629 5630 5591 5591 5630 
5631 5592 5592 5631 5632 5593 5593 5632 5633 
5594 5594 5633 5634 5595 5595 5634 5635 5596 
5596 5635 5636 5597 5597 5636 5637 5598 5598 
5637 5638 5599 5599 5638 5639 5600 5600 5639 
5640 5601 5601 5640 5641 5602 5602 5641 5642 
5603 5603 5642 5643 5604 5604 5643 5644 5605 
5605 5644 5645 5606 5606 5645 5646 5607 5607 
5646 5647 5608 5608 5647 5648 5609 5609 5648 
532 533 132 133 5649 5610 5610 5649 5650 
5611 5611 5650 5651 5612 5612 5651 5652 5613 
5613 5652 5653 5614 5614 5653 5654 5615 5615 
5654 5655 5616 5616 5655 5656 5617 5617 5656 
5657 5618 5618 5657 5658 5619 5619 5658 5659 
5620 5620 5659 5660 5621 5621 5660 5661 5622 
5622 5661 5662 5623 5623 5662 5663 5624 5624 
5663 5664 5625 5625 5664 5665 5626 5626 5665 
5666 5627 5627 5666 5667 5628 5628 5667 5668 
5629 5629 5668 5669 5630 5630 5669 5670 5631 
5631 5670 5671 5632 5632 5671 5672 5633 5633 
5672 5673 5634 5634 5673 5674 5635 5635 5674 
5675 5636 5636 5675 5676 5637 5637 5676 5677 
5638 5638 5677 5678 5639 5639 5678 5679 5640 
5640 5679 5680 5641 5641 5680 5681 5642 5642 
5681 5682 5643 5643 5682 5683 5644 5644 5683 
5684 5645 5645 5684 5685 5646 5646 5685 5686 
5647 5647 5686 5687 5648 5648 5687 531 532 
133 134 5688 5649 5649 5688 5689 5650 5650 
5689 5690 5651 5651 5690 5691 5652 5652 5691 
5692 5653 5653 5692 5693 5654 5654 5693 5694 
5655 5655 5694 5695 5656 5656 5695 5696 5657 
5657 5696 5697 5658 5658 5697 5698 5659 5659 
5698 5699 5660 5660 5699 5700 5661 5661 5700 
5701 5662 5662 5701 5702 5663 5663 5702 5703 
5664 5664 5703 5704 5665 5665 5704 5705 5666 
5666 5705 5706 5667 5667 5706 5707 5668 5668 
5707 5708 5669 5669 5708 5709 5670 5670 5709 
5710 5671 5671 5710 5711 5672 5672 5711 5712 
5673 5673 5712 5713 5674 5674 5713 5714 5675 
5675 5714 5715 5676 5676 5715 5716 5677 5677 
5716 5717 5678 5678 5717 5718 5679 5679 5718 
5719 5680 5680 5719 5720 5681 5681 5720 5721 
5682 5682 5721 5722 5683 5683 5722 5723 5684 
5684 5723 5724 5685 5685 5724 5725 5686 5686 
5725 5726 5687 5687 5726 530 531 134 135 
5727 5688 5688 5727 5728 5689 5689 5728 5729 
5690 5690 5729 5730 5691 5691 5730 5731 5692 
5692 5731 5732 5693 5693 5732 5733 5694 5694 
5733 5734 5695 5695 5734 5735 5696 5696 5735 
5736 5697 5697 5736 5737 5698 5698 5737 5738 
5699 5699 5738 5739 5700 5700 5739 5740 5701 
5701 5740 5741 5702 5702 5741 5742 5703 5703 
5742 5743 5704 5704 5743 5744 5705 5705 5744 
5745 5706 5706 5745 5746 5707 5707 5746 5747 
5708 5708 5747 5748 5709 5709 5748 5749 5710 
5710 5749 5750 5711 5711 5750 5751 5712 5712 
5751 5752 5713 5713 5752 5753 5714 5714 5753 
5754 5715 5715 5754 5755 5716 5716 5755 5756 
5717 5717 5756 5757 5718 5718 5757 5758 5719 
5719 5758 5759 5720 5720 5759 5760 5721 5721 
5760 5761 5722 5722 5761 5762 5723 5723 5762 
5763 5724 5724 5763 5764 5725 5725 5764 5765 
5726 5726 5765 529 530 135 136 5766 5727 
5727 5766 5767 5728 5728 5767 5768 5729 5729 
5768 5769 5730 5730 5769 5770 5731 5731 5770 
5771 5732 5732 5771 5772 5733 5733 5772 5773 
5734 5734 5773 5774 5735 5735 5774 5775 5736 
5736 5775 5776 5737 5737 5776 5777 5738 5738 
5777 5778 5739 5739 5778 5779 5740 5740 5779 
5780 5741 5741 5780 5781 5742 5742 5781 5782 
5743 5743 5782 5783 5744 5744 5783 5784 5745 
5745 5784 5785 5746 5746 5785 5786 5747 5747 
5786 5787 5748 5748 5787 5788 5749 5749 5788 
5789 5750 5750 5789 5790 5751 5751 5790 5791 
5752 5752 5791 5792 5753 5753 5792 5793 5754 
5754 5793 5794 5755 5755 5794 5795 5756 5756 
5795 5796 5757 5757 5796 5797 5758 5758 5797 
5798 5759 5759 5798 5799 5760 5760 5799 5800 
5761 5761 5800 5801 5762 5762 5801 5802 5763 
5763 5802 5803 5764 5764 5803 5804 5765 5765 
5804 528 529 136 137 5805 5766 5766 5805 
5806 5767 5767 5806 5807 5768 5768 5807 5808 
5769 5769 5808 5809 5770 5770 5809 5810 5771 
5771 5810 5811 5772 5772 5811 5812 5773 5773 
5812 5813 5774 5774 5813 5814 5775 5775 5814 
5815 5776 5776 5815 5816 5777 5777 5816 5817 
5778 5778 5817 5818 5779 5779 5818 5819 5780 
5780 5819 5820 5781 5781 5820 5821 5782 5782 
5821 5822 5783 5783 5822 5823 5784 5784 5823 
5824 5785 5785 5824 5825 5786 5786 5825 5826 
5787 5787 5826 5827 5788 5788 5827 5828 5789 
5789 5828 5829 5790 5790 5829 5830 5791 5791 
5830 5831 5792 5792 5831 5832 5793 5793 5832 
5833 5794 5794 5833 5834 5795 5795 5834 5835 
5796 5796 5835 5836 5797 5797 5836 5837 5798 
5798 5837 5838 5799 5799 5838 5839 5800 5800 
5839 5840 5801 5801 5840 5841 5802 5802 5841 
5842 5803 5803 5842 5843 5804 5804 5843 527 
528 137 138 5844 5805 5805 5844 5845 5806 
5806 5845 5846 5807 5807 5846 5847 5808 5808 
5847 5848 5809 5809 5848 5849 5810 5810 5849 
5850 5811 5811 5850 5851 5812 5812 5851 5852 
5813 5813 5852 5853 5814 5814 5853 5854 5815 
5815 5854 5855 5816 5816 5855 5856 5817 5817 
5856 5857 5818 5818 5857 5858 5819 5819 5858 
5859 5820 5820 5859 5860 5821 5821 5860 5861 
5822 5822 5861 5862 5823 5823 5862 5863 5824 
5824 5863 5864 5825 5825 5864 5865 5826 5826 
5865 5866 5827 5827 5866 5867 5828 5828 5867 
5868 5829 5829 5868 5869 5830 5830 5869 5870 
5831 5831 5870 5871 5832 5832 5871 5872 5833 
5833 5872 5873 5834 5834 5873 5874 5835 5835 
5874 5875 5836 5836 5875 5876 5837 5837 5876 
5877 5838 5838 5877 5878 5839 5839 5878 5879 
5840 5840 5879 5880 5841 5841 5880 5881 5842 
5842 5881 5882 5843 5843 5882 526 527 138 
139 5883 5844 5844 5883 5884 5845 5845 5884 
5885 5846 5846 5885 5886 5847 5847 5886 5887 
5848 5848 5887 5888 5849 5849 5888 5889 5850 
5850 5889 5890 5851 5851 5890 5891 5852 5852 
5891 5892 5853 5853 5892 5893 5854 5854 5893 
5894 5855 5855 5894 5895 5856 5856 5895 5896 
5857 5857 5896 5897 5858 5858 5897 5898 5859 
5859 5898 5899 5860 5860 5899 5900 5861 5861 
5900 5901 5862 5862 5901 5902 5863 5863 5902 
5903 5864 5864 5903 5904 5865 5865 5904 5905 
5866 5866 5905 5906 5867 5867 5906 5907 5868 
5868 5907 5908 5869 5869 5908 5909 5870 5870 
5909 5910 5871 5871 5910 5911 5872 5872 5911 
5912 5873 5873 5912 5913 5874 5874 5913 5914 
5875 5875 5914 5915 5876 5876 5915 5916 5877 
5877 5916 5917 5878 5878 5917 5918 5879 5879 
5918 5919 5880 5880 5919 5920 5881 5881 5920 
5921 5882 5882 5921 525 526 139 140 5922 
5883 5883 5922 5923 5884 5884 5923 5924 5885 
5885 5924 5925 5886 5886 5925 5926 5887 5887 
5926 5927 5888 5888 5927 5928 5889 5889 5928 
5929 5890 5890 5929 5930 5891 5891 5930 5931 
5892 5892 5931 5932 5893 5893 5932 5933 5894 
5894 5933 5934 5895 5895 5934 5935 5896 5896 
5935 5936 5897 5897 5936 5937 5898 5898 5937 
5938 5899 5899 5938 5939 5900 5900 5939 5940 
5901 5901 5940 5941 5902 5902 5941 5942 5903 
5903 5942 5943 5904 5904 5943 5944 5905 5905 
5944 5945 5906 5906 5945 5946 5907 5907 5946 
5947 5908 5908 5947 5948 5909 5909 5948 5949 
5910 5910 5949 5950 5911 5911 5950 5951 5912 
5912 5951 5952 5913 5913 5952 5953 5914 5914 
5953 5954 5915 5915 5954 5955 5916 5916 5955 
5956 5917 5917 5956 5957 5918 5918 5957 5958 
5919 5919 5958 5959 5920 5920 5959 5960 5921 
5921 5960 524 525 140 141 5961 5922 5922 
5961 5962 5923 5923 5962 5963 5924 5924 5963 
5964 5925 5925 5964 5965 5926 5926 5965 5966 
5927 5927 5966 5967 5928 5928 5967 5968 5929 
5929 5968 5969 5930 5930 5969 5970 5931 5931 
5970 5971 5932 5932 5971 5972 5933 5933 5972 
5973 5934 5934 5973 5974 5935 5935 5974 5975 
5936 5936 5975 5976 5937 5937 5976 5977 5938 
5938 5977 5978 5939 5939 5978 5979 5940 5940 
5979 5980 5941 5941 5980 5981 5942 5942 5981 
5982 5943 5943 5982 5983 5944 5944 5983 5984 
5945 5945 5984 5985 5946 5946 5985 5986 5947 
5947 5986 5987 5948 5948 5987 5988 5949 5949 
5988 5989 5950 5950 5989 5990 5951 5951 5990 
5991 5952 5952 5991 5992 5953 5953 5992 5993 
5954 5954 5993 5994 5955 5955 5994 5995 5956 
5956 5995 5996 5957 5957 5996 5997 5958 5958 
5997 5998 5959 5959 5998 5999 5960 5960 5999 
523 524 141 142 6000 5961 5961 6000 6001 
5962 5962 6001 6002 5963 5963 6002 6003 5964 
5964 6003 6004 5965 5965 6004 6005 5966 5966 
6005 6006 5967 5967 6006 6007 5968 5968 6007 
6008 5969 5969 6008 6009 5970 5970 6009 6010 
5971 5971 6010 6011 5972 5972 6011 6012 5973 
5973 6012 6013 5974 5974 6013 6014 5975 5975 
6014 6015 5976 5976 6015 6016 5977 5977 6016 
6017 5978 5978 6017 6018 5979 5979 6018 6019 
5980 5980 6019 6020 5981 5981 6020 6021 5982 
5982 6021 6022 5983 5983 6022 6023 5984 5984 
6023 6024 5985 5985 6024 6025 5986 5986 6025 
6026 5987 5987 6026 6027 5988 5988 6027 6028 
5989 5989 6028 6029 5990 5990 6029 6030 5991 
5991 6030 6031 5992 5992 6031 6032 5993 5993 
6032 6033 5994 5994 6033 6034 5995 5995 6034 
6035 5996 5996 6035 6036 5997 5997 6036 6037 
5998 5998 6037 6038 5999 5999 6038 522 523 
142 143 6039 6000 6000 6039 6040 6001 6001 
6040 6041 6002 6002 6041 6042 6003 6003 6042 
6043 6004 6004 6043 6044 6005 6005 6044 6045 
6006 6006 6045 6046 6007 6007 6046 6047 6008 
6008 6047 6048 6009 6009 6048 6049 6010 6010 
6049 6050 6011 6011 6050 6051 6012 6012 6051 
6052 6013 6013 6052 6053 6014 6014 6053 6054 
6015 6015 6054 6055 6016 6016 6055 6056 6017 
6017 6056 6057 6018 6018 6057 6058 6019 6019 
6058 6059 6020 6020 6059 6060 6021 6021 6060 
6061 6022 6022 6061 6062 6023 6023 6062 6063 
6024 6024 6063 6064 6025 6025 6064 6065 6026 
6026 6065 6066 6027 6027 6066 6067 6028 6028 
6067 6068 6029 6029 6068 6069 6030 6030 6069 
6070 6031 6031 6070 6071 6032 6032 6071 6072 
6033 6033 6072 6073 6034 6034 6073 6074 6035 
6035 6074 6075 6036 6036 6075 6076 6037 6037 
6076 6077 6038 6038 6077 521 522 143 144 
6078 6039 6039 6078 6079 6040 6040 6079 6080 
6041 6041 6080 6081 6042 6042 6081 6082 6043 
6043 6082 6083 6044 6044 6083 6084 6045 6045 
6084 6085 6046 6046 6085 6086 6047 6047 6086 
6087 6048 6048 6087 6088 6049 6049 6088 6089 
6050 6050 6089 6090 6051 6051 6090 6091 6052 
6052 6091 6092 6053 6053 6092 6093 6054 6054 
6093 6094 6055 6055 6094 6095 6056 6056 6095 
6096 6057 6057 6096 6097 6058 6058 6097 6098 
6059 6059 6098 6099 6060 6060 6099 6100 6061 
6061 6100 6101 6062 6062 6101 6102 6063 6063 
6102 6103 6064 6064 6103 6104 6065 6065 6104 
6105 6066 6066 6105 6106 6067 6067 6106 6107 
6068 6068 6107 6108 6069 6069 6108 6109 6070 
6070 6109 6110 6071 6071 6110 6111 6072 6072 
6111 6112 6073 6073 6112 6113 6074 6074 6113 
6114 6075 6075 6114 6115 6076 6076 6115 6116 
6077 6077 6116 520 521 144 145 6117 6078 
6078 6117 6118 6079 6079 6118 6119 6080 6080 
6119 6120 6081 6081 6120 6121 6082 6082 6121 
6122 6083 6083 6122 6123 6084 6084 6123 6124 
6085 6085 6124 6125 6086 6086 6125 6126 6087 
6087 6126 6127 6088 6088 6127 6128 6089 6089 
6128 6129 6090 6090 6129 6130 6091 6091 6130 
6131 6092 6092 6131 6132 6093 6093 6132 6133 
6094 6094 6133 6134 6095 6095 6134 6135 6096 
6096 6135 6136 6097 6097 6136 6137 6098 6098 
6137 6138 6099 6099 6138 6139 6100 6100 6139 
6140 6101 6101 6140 6141 6102 6102 6141 6142 
6103 6103 6142 6143 6104 6104 6143 6144 6105 
6105 6144 6145 6106 6106 6145 6146 6107 6107 
6146 6147 6108 6108 6147 6148 6109 6109 6148 
6149 6110 6110 6149 6150 6111 6111 6150 6151 
6112 6112 6151 6152 6113 6113 6152 6153 6114 
6114 6153 6154 6115 6115 6154 6155 6116 6116 
6155 519 520 145 146 6156 6117 6117 6156 
6157 6118 6118 6157 6158 6119 6119 6158 6159 
6120 6120 6159 6160 6121 6121 6160 6161 6122 
6122 6161 6162 6123 6123 6162 6163 6124 6124 
6163 6164 6125 6125 6164 6165 6126 6126 6165 
6166 6127 6127 6166 6167 6128 6128 6167 6168 
6129 6129 6168 6169 6130 6130 6169 6170 6131 
6131 6170 6171 6132 6132 6171 6172 6133 6133 
6172 6173 6134 6134 6173 6174 6135 6135 6174 
6175 6136 6136 6175 6176 6137 6137 6176 6177 
6138 6138 6177 6178 6139 6139 6178 6179 6140 
6140 6179 6180 6141 6141 6180 6181 6142 6142 
6181 6182 6143 6143 6182 6183 6144 6144 6183 
6184 6145 6145 6184 6185 6146 6146 6185 6186 
6147 6147 6186 6187 6148 6148 6187 6188 6149 
6149 6188 6189 6150 6150 6189 6190 6151 6151 
6190 6191 6152 6152 6191 6192 6153 6153 6192 
6193 6154 6154 6193 6194 6155 6155 6194 518 
519 146 147 6195 6156 6156 6195 6196 6157 
6157 6196 6197 6158 6158 6197 6198 6159 6159 
6198 6199 6160 6160 6199 6200 6161 6161 6200 
6201 6162 6162 6201 6202 6163 6163 6202 6203 
6164 6164 6203 6204 6165 6165 6204 6205 6166 
6166 6205 6206 6167 6167 6206 6207 6168 6168 
6207 6208 6169 6169 6208 6209 6170 6170 6209 
6210 6171 6171 6210 6211 6172 6172 6211 6212 
6173 6173 6212 6213 6174 6174 6213 6214 6175 
6175 6214 6215 6176 6176 6215 6216 6177 6177 
6216 6217 6178 6178 6217 6218 6179 6179 6218 
6219 6180 6180 6219 6220 6181 6181 6220 6221 
6182 6182 6221 6222 6183 6183 6222 6223 6184 
6184 6223 6224 6185 6185 6224 6225 6186 6186 
6225 6226 6187 6187 6226 6227 6188 6188 6227 
6228 6189 6189 6228 6229 6190 6190 6229 6230 
6191 6191 6230 6231 6192 6192 6231 6232 6193 
6193 6232 6233 6194 6194 6233 517 518 147 
148 6234 6195 6195 6234 6235 6196 6196 6235 
6236 6197 6197 6236 6237 6198 6198 6237 6238 
6199 6199 6238 6239 6200 6200 6239 6240 6201 
6201 6240 6241 6202 6202 6241 6242 6203 6203 
6242 6243 6204 6204 6243 6244 6205 6205 6244 
6245 6206 6206 6245 6246 6207 6207 6246 6247 
6208 6208 6247 6248 6209 6209 6248 6249 6210 
6210 6249 6250 6211 6211 6250 6251 6212 6212 
6251 6252 6213 6213 6252 6253 6214 6214 6253 
6254 6215 6215 6254 6255 6216 6216 6255 6256 
6217 6217 6256 6257 6218 6218 6257 6258 6219 
6219 6258 6259 6220 6220 6259 6260 6221 6221 
6260 6261 6222 6222 6261 6262 6223 6223 6262 
6263 6224 6224 6263 6264 6225 6225 6264 6265 
6226 6226 6265 6266 6227 6227 6266 6267 6228 
6228 6267 6268 6229 6229 6268 6269 6230 6230 
6269 6270 6231 6231 6270 6271 6232 6232 6271 
6272 6233 6233 6272 516 517 148 149 6273 
6234 6234 6273 6274 6235 6235 6274 6275 6236 
6236 6275 6276 6237 6237 6276 6277 6238 6238 
6277 6278 6239 6239 6278 6279 6240 6240 6279 
6280 6241 6241 6280 6281 6242 6242 6281 6282 
6243 6243 6282 6283 6244 6244 6283 6284 6245 
6245 6284 6285 6246 6246 6285 6286 6247 6247 
6286 6287 6248 6248 6287 6288 6249 6249 6288 
6289 6250 6250 6289 6290 6251 6251 6290 6291 
6252 6252 6291 6292 6253 6253 6292 6293 6254 
6254 6293 6294 6255 6255 6294 6295 6256 6256 
6295 6296 6257 6257 6296 6297 6258 6258 6297 
6298 6259 6259 6298 6299 6260 6260 6299 6300 
6261 6261 6300 6301 6262 6262 6301 6302 6263 
6263 6302 6303 6264 6264 6303 6304 6265 6265 
6304 6305 6266 6266 6305 6306 6267 6267 6306 
6307 6268 6268 6307 6308 6269 6269 6308 6309 
6270 6270 6309 6310 6271 6271 6310 6311 6272 
6272 6311 515 516 149 150 6312 6273 6273 
6312 6313 6274 6274 6313 6314 6275 6275 6314 
6315 6276 6276 6315 6316 6277 6277 6316 6317 
6278 6278 6317 6318 6279 6279 6318 6319 6280 
6280 6319 6320 6281 6281 6320 6321 6282 6282 
6321 6322 6283 6283 6322 6323 6284 6284 6323 
6324 6285 6285 6324 6325 6286 6286 6325 6326 
6287 6287 6326 6327 6288 6288 6327 6328 6289 
6289 6328 6329 6290 6290 6329 6330 6291 6291 
6330 6331 6292 6292 6331 6332 6293 6293 6332 
6333 6294 6294 6333 6334 6295 6295 6334 6335 
6296 6296 6335 6336 6297 6297 6336 6337 6298 
6298 6337 6338 6299 6299 6338 6339 6300 6300 
6339 6340 6301 6301 6340 6341 6302 6302 6341 
6342 6303 6303 6342 6343 6304 6304 6343 6344 
6305 6305 6344 6345 6306 6306 6345 6346 6307 
6307 6346 6347 6308 6308 6347 6348 6309 6309 
6348 6349 6310 6310 6349 6350 6311 6311 6350 
514 515 150 151 6351 6312 6312 6351 6352 
6313 6313 6352 6353 6314 6314 6353 6354 6315 
6315 6354 6355 6316 6316 6355 6356 6317 6317 
6356 6357 6318 6318 6357 6358 6319 6319 6358 
6359 6320 6320 6359 6360 6321 6321 6360 6361 
6322 6322 6361 6362 6323 6323 6362 6363 6324 
6324 6363 6364 6325 6325 6364 6365 6326 6326 
6365 6366 6327 6327 6366 6367 6328 6328 6367 
6368 6329 6329 6368 6369 6330 6330 6369 6370 
6331 6331 6370 6371 6332 6332 6371 6372 6333 
6333 6372 6373 6334 6334 6373 6374 6335 6335 
6374 6375 6336 6336 6375 6376 6337 6337 6376 
6377 6338 6338 6377 6378 6339 6339 6378 6379 
6340 6340 6379 6380 6341 6341 6380 6381 6342 
6342 6381 6382 6343 6343 6382 6383 6344 6344 
6383 6384 6345 6345 6384 6385 6346 6346 6385 
6386 6347 6347 6386 6387 6348 6348 6387 6388 
6349 6349 6388 6389 6350 6350 6389 513 514 
151 152 6390 6351 6351 6390 6391 6352 6352 
6391 6392 6353 6353 6392 6393 6354 6354 6393 
6394 6355 6355 6394 6395 6356 6356 6395 6396 
6357 6357 6396 6397 6358 6358 6397 6398 6359 
6359 6398 6399 6360 6360 6399 6400 6361 6361 
6400 6401 6362 6362 6401 6402 6363 6363 6402 
6403 6364 6364 6403 6404 6365 6365 6404 6405 
6366 6366 6405 6406 6367 6367 6406 6407 6368 
6368 6407 6408 6369 6369 6408 6409 6370 6370 
6409 6410 6371 6371 6410 6411 6372 6372 6411 
6412 6373 6373 6412 6413 6374 6374 6413 6414 
6375 6375 6414 6415 6376 6376 6415 6416 6377 
6377 6416 6417 6378 6378 6417 6418 6379 6379 
6418 6419 6380 6380 6419 6420 6381 6381 6420 
6421 6382 6382 6421 6422 6383 6383 6422 6423 
6384 6384 6423 6424 6385 6385 6424 6425 6386 
6386 6425 6426 6387 6387 6426 6427 6388 6388 
6427 6428 6389 6389 6428 512 513 152 153 
6429 6390 6390 6429 6430 6391 6391 6430 6431 
6392 6392 6431 6432 6393 6393 6432 6433 6394 
6394 6433 6434 6395 6395 6434 6435 6396 6396 
6435 6436 6397 6397 6436 6437 6398 6398 6437 
6438 6399 6399 6438 6439 6400 6400 6439 6440 
6401 6401 6440 6441 6402 6402 6441 6442 6403 
6403 6442 6443 6404 6404 6443 6444 6405 6405 
6444 6445 6406 6406 6445 6446 6407 6407 6446 
6447 6408 6408 6447 6448 6409 6409 6448 6449 
6410 6410 6449 6450 6411 6411 6450 6451 6412 
6412 6451 6452 6413 6413 6452 6453 6414 6414 
6453 6454 6415 6415 6454 6455 6416 6416 6455 
6456 6417 6417 6456 6457 6418 6418 6457 6458 
6419 6419 6458 6459 6420 6420 6459 6460 6421 
6421 6460 6461 6422 6422 6461 6462 6423 6423 
6462 6463 6424 6424 6463 6464 6425 6425 6464 
6465 6426 6426 6465 6466 6427 6427 6466 6467 
6428 6428 6467 511 512 153 154 6468 6429 
6429 6468 6469 6430 6430 6469 6470 6431 6431 
6470 6471 6432 6432 6471 6472 6433 6433 6472 
6473 6434 6434 6473 6474 6435 6435 6474 6475 
6436 6436 6475 6476 6437 6437 6476 6477 6438 
6438 6477 6478 6439 6439 6478 6479 6440 6440 
6479 6480 6441 6441 6480 6481 6442 6442 6481 
6482 6443 6443 6482 6483 6444 6444 6483 6484 
6445 6445 6484 6485 6446 6446 6485 6486 6447 
6447 6486 6487 6448 6448 6487 6488 6449 6449 
6488 6489 6450 6450 6489 6490 6451 6451 6490 
6491 6452 6452 6491 6492 6453 6453 6492 6493 
6454 6454 6493 6494 6455 6455 6494 6495 6456 
6456 6495 6496 6457 6457 6496 6497 6458 6458 
6497 6498 6459 6459 6498 6499 6460 6460 6499 
6500 6461 6461 6500 6501 6462 6462 6501 6502 
6463 6463 6502 6503 6464 6464 6503 6504 6465 
6465 6504 6505 6466 6466 6505 6506 6467 6467 
6506 510 511 154 155 6507 6468 6468 6507 
6508 6469 6469 6508 6509 6470 6470 6509 6510 
6471 6471 6510 6511 6472 6472 6511 6512 6473 
6473 6512 6513 6474 6474 6513 6514 6475 6475 
6514 6515 6476 6476 6515 6516 6477 6477 6516 
6517 6478 6478 6517 6518 6479 6479 6518 6519 
6480 6480 6519 6520 6481 6481 6520 6521 6482 
6482 6521 6522 6483 6483 6522 6523 6484 6484 
6523 6524 6485 6485 6524 6525 6486 6486 6525 
6526 6487 6487 6526 6527 6488 6488 6527 6528 
6489 6489 6528 6529 6490 6490 6529 6530 6491 
6491 6530 6531 6492 6492 6531 6532 6493 6493 
6532 6533 6494 6494 6533 6534 6495 6495 6534 
6535 6496 6496 6535 6536 6497 6497 6536 6537 
6498 6498 6537 6538 6499 6499 6538 6539 6500 
6500 6539 6540 6501 6501 6540 6541 6502 6502 
6541 6542 6503 6503 6542 6543 6504 6504 6543 
6544 6505 6505 6544 6545 6506 6506 6545 509 
510 155 156 6546 6507 6507 6546 6547 6508 
6508 6547 6548 6509 6509 6548 6549 6510 6510 
6549 6550 6511 6511 6550 6551 6512 6512 6551 
6552 6513 6513 6552 6553 6514 6514 6553 6554 
6515 6515 6554 6555 6516 6516 6555 6556 6517 
6517 6556 6557 6518 6518 6557 6558 6519 6519 
6558 6559 6520 6520 6559 6560 6521 6521 6560 
6561 6522 6522 6561 6562 6523 6523 6562 6563 
6524 6524 6563 6564 6525 6525 6564 6565 6526 
6526 6565 6566 6527 6527 6566 6567 6528 6528 
6567 6568 6529 6529 6568 6569 6530 6530 6569 
6570 6531 6531 6570 6571 6532 6532 6571 6572 
6533 6533 6572 6573 6534 6534 6573 6574 6535 
6535 6574 6575 6536 6536 6575 6576 6537 6537 
6576 6577 6538 6538 6577 6578 6539 6539 6578 
6579 6540 6540 6579 6580 6541 6541 6580 6581 
6542 6542 6581 6582 6543 6543 6582 6583 6544 
6544 6583 6584 6545 6545 6584 508 509 156 
157 6585 6546 6546 6585 6586 6547 6547 6586 
6587 6548 6548 6587 6588 6549 6549 6588 6589 
6550 6550 6589 6590 6551 6551 6590 6591 6552 
6552 6591 6592 6553 6553 6592 6593 6554 6554 
6593 6594 6555 6555 6594 6595 6556 6556 6595 
6596 6557 6557 6596 6597 6558 6558 6597 6598 
6559 6559 6598 6599 6560 6560 6599 6600 6561 
6561 6600 6601 6562 6562 6601 6602 6563 6563 
6602 6603 6564 6564 6603 6604 6565 6565 6604 
6605 6566 6566 6605 6606 6567 6567 6606 6607 
6568 6568 6607 6608 6569 6569 6608 6609 6570 
6570 6609 6610 6571 6571 6610 6611 6572 6572 
6611 6612 6573 6573 6612 6613 6574 6574 6613 
6614 6575 6575 6614 6615 6576 6576 6615 6616 
6577 6577 6616 6617 6578 6578 6617 6618 6579 
6579 6618 6619 6580 6580 6619 6620 6581 6581 
6620 6621 6582 6582 6621 6622 6583 6583 6622 
6623 6584 6584 6623 507 508 157 158 6624 
6585 6585 6624 6625 6586 6586 6625 6626 6587 
6587 6626 6627 6588 6588 6627 6628 6589 6589 
6628 6629 6590 6590 6629 6630 6591 6591 6630 
6631 6592 6592 6631 6632 6593 6593 6632 6633 
6594 6594 6633 6634 6595 6595 6634 6635 6596 
6596 6635 6636 6597 6597 6636 6637 6598 6598 
6637 6638 6599 6599 6638 6639 6600 6600 6639 
6640 6601 6601 6640 6641 6602 6602 6641 6642 
6603 6603 6642 6643 6604 6604 6643 6644 6605 
6605 6644 6645 6606 6606 6645 6646 6607 6607 
6646 6647 6608 6608 6647 6648 6609 6609 6648 
6649 6610 6610 6649 6650 6611 6611 6650 6651 
6612 6612 6651 6652 6613 6613 6652 6653 6614 
6614 6653 6654 6615 6615 6654 6655 6616 6616 
6655 6656 6617 6617 6656 6657 6618 6618 6657 
6658 6619 6619 6658 6659 6620 6620 6659 6660 
6621 6621 6660 6661 6622 6622 6661 6662 6623 
6623 6662 506 507 158 159 6663 6624 6624 
6663 6664 6625 6625 6664 6665 6626 6626 6665 
6666 6627 6627 6666 6667 6628 6628 6667 6668 
6629 6629 6668 6669 6630 6630 6669 6670 6631 
6631 6670 6671 6632 6632 6671 6672 6633 6633 
6672 6673 6634 6634 6673 6674 6635 6635 6674 
6675 6636 6636 6675 6676 6637 6637 6676 6677 
6638 6638 6677 6678 6639 6639 6678 6679 6640 
6640 6679 6680 6641 6641 6680 6681 6642 6642 
6681 6682 6643 6643 6682 6683 6644 6644 6683 
6684 6645 6645 6684 6685 6646 6646 6685 6686 
6647 6647 6686 6687 6648 6648 6687 6688 6649 
6649 6688 6689 6650 6650 6689 6690 6651 6651 
6690 6691 6652 6652 6691 6692 6653 6653 6692 
6693 6654 6654 6693 6694 6655 6655 6694 6695 
6656 6656 6695 6696 6657 6657 6696 6697 6658 
6658 6697 6698 6659 6659 6698 6699 6660 6660 
6699 6700 6661 6661 6700 6701 6662 6662 6701 
505 506 159 160 6702 6663 6663 6702 6703 
6664 6664 6703 6704 6665 6665 6704 6705 6666 
6666 6705 6706 6667 6667 6706 6707 6668 6668 
6707 6708 6669 6669 6708 6709 6670 6670 6709 
6710 6671 6671 6710 6711 6672 6672 6711 6712 
6673 6673 6712 6713 6674 6674 6713 6714 6675 
6675 6714 6715 6676 6676 6715 6716 6677 6677 
6716 6717 6678 6678 6717 6718 6679 6679 6718 
6719 6680 6680 6719 6720 6681 6681 6720 6721 
6682 6682 6721 6722 6683 6683 6722 6723 6684 
6684 6723 6724 6685 6685 6724 6725 6686 6686 
6725 6726 6687 6687 6726 6727 6688 6688 6727 
6728 6689 6689 6728 6729 6690 6690 6729 6730 
6691 6691 6730 6731 6692 6692 6731 6732 6693 
6693 6732 6733 6694 6694 6733 6734 6695 6695 
6734 6735 6696 6696 6735 6736 6697 6697 6736 
6737 6698 6698 6737 6738 6699 6699 6738 6739 
6700 6700 6739 6740 6701 6701 6740 504 505 
160 161 6741 6702 6702 6741 6742 6703 6703 
6742 6743 6704 6704 6743 6744 6705 6705 6744 
6745 6706 6706 6745 6746 6707 6707 6746 6747 
6708 6708 6747 6748 6709 6709 6748 6749 6710 
6710 6749 6750 6711 6711 6750 6751 6712 6712 
6751 6752 6713 6713 6752 6753 6714 6714 6753 
6754 6715 6715 6754 6755 6716 6716 6755 6756 
6717 6717 6756 6757 6718 6718 6757 6758 6719 
6719 6758 6759 6720 6720 6759 6760 6721 6721 
6760 6761 6722 6722 6761 6762 6723 6723 6762 
6763 6724 6724 6763 6764 6725 6725 6764 6765 
6726 6726 6765 6766 6727 6727 6766 6767 6728 
6728 6767 6768 6729 6729 6768 6769 6730 6730 
6769 6770 6731 6731 6770 6771 6732 6732 6771 
6772 6733 6733 6772 6773 6734 6734 6773 6774 
6735 6735 6774 6775 6736 6736 6775 6776 6737 
6737 6776 6777 6738 6738 6777 6778 6739 6739 
6778 6779 6740 6740 6779 503 504 161 162 
6780 6741 6741 6780 6781 6742 6742 6781 6782 
6743 6743 6782 6783 6744 6744 6783 6784 6745 
6745 6784 6785 6746 6746 6785 6786 6747 6747 
6786 6787 6748 6748 6787 6788 6749 6749 6788 
6789 6750 6750 6789 6790 6751 6751 6790 6791 
6752 6752 6791 6792 6753 6753 6792 6793 6754 
6754 6793 6794 6755 6755 6794 6795 6756 6756 
6795 6796 6757 6757 6796 6797 6758 6758 6797 
6798 6759 6759 6798 6799 6760 6760 6799 6800 
6761 6761 6800 6801 6762 6762 6801 6802 6763 
6763 6802 6803 6764 6764 6803 6804 6765 6765 
6804 6805 6766 6766 6805 6806 6767 6767 6806 
6807 6768 6768 6807 6808 6769 6769 6808 6809 
6770 6770 6809 6810 6771 6771 6810 6811 6772 
6772 6811 6812 6773 6773 6812 6813 6774 6774 
6813 6814 6775 6775 6814 6815 6776 6776 6815 
6816 6777 6777 6816 6817 6778 6778 6817 6818 
6779 6779 6818 502 503 162 163 6819 6780 
6780 6819 6820 6781 6781 6820 6821 6782 6782 
6821 6822 6783 6783 6822 6823 6784 6784 6823 
6824 6785 6785 6824 6825 6786 6786 6825 6826 
6787 6787 6826 6827 6788 6788 6827 6828 6789 
6789 6828 6829 6790 6790 6829 6830 6791 6791 
6830 6831 6792 6792 6831 6832 6793 6793 6832 
6833 6794 6794 6833 6834 6795 6795 6834 6835 
6796 6796 6835 6836 6797 6797 6836 6837 6798 
6798 6837 6838 6799 6799 6838 6839 6800 6800 
6839 6840 6801 6801 6840 6841 6802 6802 6841 
6842 6803 6803 6842 6843 6804 6804 6843 6844 
6805 6805 6844 6845 6806 6806 6845 6846 6807 
6807 6846 6847 6808 6808 6847 6848 6809 6809 
6848 6849 6810 6810 6849 6850 6811 6811 6850 
6851 6812 6812 6851 6852 6813 6813 6852 6853 
6814 6814 6853 6854 6815 6815 6854 6855 6816 
6816 6855 6856 6817 6817 6856 6857 6818 6818 
6857 501 502 163 164 6858 6819 6819 6858 
6859 6820 6820 6859 6860 6821 6821 6860 6861 
6822 6822 6861 6862 6823 6823 6862 6863 6824 
6824 6863 6864 6825 6825 6864 6865 6826 6826 
6865 6866 6827 6827 6866 6867 6828 6828 6867 
6868 6829 6829 6868 6869 6830 6830 6869 6870 
6831 6831 6870 6871 6832 6832 6871 6872 6833 
6833 6872 6873 6834 6834 6873 6874 6835 6835 
6874 6875 6836 6836 6875 6876 6837 6837 6876 
6877 6838 6838 6877 6878 6839 6839 6878 6879 
6840 6840 6879 6880 6841 6841 6880 6881 6842 
6842 6881 6882 6843 6843 6882 6883 6844 6844 
6883 6884 6845 6845 6884 6885 6846 6846 6885 
6886 6847 6847 6886 6887 6848 6848 6887 6888 
6849 6849 6888 6889 6850 6850 6889 6890 6851 
6851 6890 6891 6852 6852 6891 6892 6853 6853 
6892 6893 6854 6854 6893 6894 6855 6855 6894 
6895 6856 6856 6895 6896 6857 6857 6896 500 
501 164 165 6897 6858 6858 6897 6898 6859 
6859 6898 6899 6860 6860 6899 6900 6861 6861 
6900 6901 6862 6862 6901 6902 6863 6863 6902 
6903 6864 6864 6903 6904 6865 6865 6904 6905 
6866 6866 6905 6906 6867 6867 6906 6907 6868 
6868 6907 6908 6869 6869 6908 6909 6870 6870 
6909 6910 6871 6871 6910 6911 6872 6872 6911 
6912 6873 6873 6912 6913 6874 6874 6913 6914 
6875 6875 6914 6915 6876 6876 6915 6916 6877 
6877 6916 6917 6878 6878 6917 6918 6879 6879 
6918 6919 6880 6880 6919 6920 6881 6881 6920 
6921 6882 6882 6921 6922 6883 6883 6922 6923 
6884 6884 6923 6924 6885 6885 6924 6925 6886 
6886 6925 6926 6887 6887 6926 6927 6888 6888 
6927 6928 6889 6889 6928 6929 6890 6890 6929 
6930 6891 6891 6930 6931 6892 6892 6931 6932 
6893 6893 6932 6933 6894 6894 6933 6934 6895 
6895 6934 6935 6896 6896 6935 499 500 165 
166 6936 6897 6897 6936 6937 6898 6898 6937 
6938 6899 6899 6938 6939 6900 6900 6939 6940 
6901 6901 6940 6941 6902 6902 6941 6942 6903 
6903 6942 6943 6904 6904 6943 6944 6905 6905 
6944 6945 6906 6906 6945 6946 6907 6907 6946 
6947 6908 6908 6947 6948 6909 6909 6948 6949 
6910 6910 6949 6950 6911 6911 6950 6951 6912 
6912 6951 6952 6913 6913 6952 6953 6914 6914 
6953 6954 6915 6915 6954 6955 6916 6916 6955 
6956 6917 6917 6956 6957 6918 6918 6957 6958 
6919 6919 6958 6959 6920 6920 6959 6960 6921 
6921 6960 6961 6922 6922 6961 6962 6923 6923 
6962 6963 6924 6924 6963 6964 6925 6925 6964 
6965 6926 6926 6965 6966 6927 6927 6966 6967 
6928 6928 6967 6968 6929 6929 6968 6969 6930 
6930 6969 6970 6931 6931 6970 6971 6932 6932 
6971 6972 6933 6933 6972 6973 6934 6934 6973 
6974 6935 6935 6974 498 499 166 167 6975 
6936 6936 6975 6976 6937 6937 6976 6977 6938 
6938 6977 6978 6939 6939 6978 6979 6940 6940 
6979 6980 6941 6941 6980 6981 6942 6942 6981 
6982 6943 6943 6982 6983 6944 6944 6983 6984 
6945 6945 6984 6985 6946 6946 6985 6986 6947 
6947 6986 6987 6948 6948 6987 6988 6949 6949 
6988 6989 6950 6950 6989 6990 6951 6951 6990 
6991 6952 6952 6991 6992 6953 6953 6992 6993 
6954 6954 6993 6994 6955 6955 6994 6995 6956 
6956 6995 6996 6957 6957 6996 6997 6958 6958 
6997 6998 6959 6959 6998 6999 6960 6960 6999 
7000 6961 6961 7000 7001 6962 6962 7001 7002 
6963 6963 7002 7003 6964 6964 7003 7004 6965 
6965 7004 7005 6966 6966 7005 7006 6967 6967 
7006 7007 6968 6968 7007 7008 6969 6969 7008 
7009 6970 6970 7009 7010 6971 6971 7010 7011 
6972 6972 7011 7012 6973 6973 7012 7013 6974 
6974 7013 497 498 167 168 7014 6975 6975 
7014 7015 6976 6976 7015 7016 6977 6977 7016 
7017 6978 6978 7017 7018 6979 6979 7018 7019 
6980 6980 7019 7020 6981 6981 7020 7021 6982 
6982 7021 7022 6983 6983 7022 7023 6984 6984 
7023 7024 6985 6985 7024 7025 6986 6986 7025 
7026 6987 6987 7026 7027 6988 6988 7027 7028 
6989 6989 7028 7029 6990 6990 7029 7030 6991 
6991 7030 7031 6992 6992 7031 7032 6993 6993 
7032 7033 6994 6994 7033 7034 6995 6995 7034 
7035 6996 6996 7035 7036 6997 6997 7036 7037 
6998 6998 7037 7038 6999 6999 7038 7039 7000 
7000 7039 7040 7001 7001 7040 7041 7002 7002 
7041 7042 7003 7003 7042 7043 7004 7004 7043 
7044 7005 7005 7044 7045 7006 7006 7045 7046 
7007 7007 7046 7047 7008 7008 7047 7048 7009 
7009 7048 7049 7010 7010 7049 7050 7011 7011 
7050 7051 7012 7012 7051 7052 7013 7013 7052 
496 497 168 169 7053 7014 7014 7053 7054 
7015 7015 7054 7055 7016 7016 7055 7056 7017 
7017 7056 7057 7018 7018 7057 7058 7019 7019 
7058 7059 7020 7020 7059 7060 7021 7021 7060 
7061 7022 7022 7061 7062 7023 7023 7062 7063 
7024 7024 7063 7064 7025 7025 7064 7065 7026 
7026 7065 7066 7027 7027 7066 7067 7028 7028 
7067 7068 7029 7029 7068 7069 7030 7030 7069 
7070 7031 7031 7070 7071 7032 7032 7071 7072 
7033 7033 7072 7073 7034 7034 7073 7074 7035 
7035 7074 7075 7036 7036 7075 7076 7037 7037 
7076 7077 7038 7038 7077 7078 7039 7039 7078 
7079 7040 7040 7079 7080 7041 7041 7080 7081 
7042 7042 7081 7082 7043 7043 7082 7083 7044 
7044 7083 7084 7045 7045 7084 7085 7046 7046 
7085 7086 7047 7047 7086 7087 7048 7048 7087 
7088 7049 7049 7088 7089 7050 7050 7089 7090 
7051 7051 7090 7091 7052 7052 7091 495 496 
169 170 7092 7053 7053 7092 7093 7054 7054 
7093 7094 7055 7055 7094 7095 7056 7056 7095 
7096 7057 7057 7096 7097 7058 7058 7097 7098 
7059 7059 7098 7099 7060 7060 7099 7100 7061 
7061 7100 7101 7062 7062 7101 7102 7063 7063 
7102 7103 7064 7064 7103 7104 7065 7065 7104 
7105 7066 7066 7105 7106 7067 7067 7106 7107 
7068 7068 7107 7108 7069 7069 7108 7109 7070 
7070 7109 7110 7071 7071 7110 7111 7072 7072 
7111 7112 7073 7073 7112 7113 7074 7074 7113 
7114 7075 7075 7114 7115 7076 7076 7115 7116 
7077 7077 7116 7117 7078 7078 7117 7118 7079 
7079 7118 7119 7080 7080 7119 7120 7081 7081 
7120 7121 7082 7082 7121 7122 7083 7083 7122 
7123 7084 7084 7123 7124 7085 7085 7124 7125 
7086 7086 7125 7126 7087 7087 7126 7127 7088 
7088 7127 7128 7089 7089 7128 7129 7090 7090 
7129 7130 7091 7091 7130 494 495 170 171 
7131 7092 7092 7131 7132 7093 7093 7132 7133 
7094 7094 7133 7134 7095 7095 7134 7135 7096 
7096 7135 7136 7097 7097 7136 7137 7098 7098 
7137 7138 7099 7099 7138 7139 7100 7100 7139 
7140 7101 7101 7140 7141 7102 7102 7141 7142 
7103 7103 7142 7143 7104 7104 7143 7144 7105 
7105 7144 7145 7106 7106 7145 7146 7107 7107 
7146 7147 7108 7108 7147 7148 7109 7109 7148 
7149 7110 7110 7149 7150 7111 7111 7150 7151 
7112 7112 7151 7152 7113 7113 7152 7153 7114 
7114 7153 7154 7115 7115 7154 7155 7116 7116 
7155 7156 7117 7117 7156 7157 7118 7118 7157 
7158 7119 7119 7158 7159 7120 7120 7159 7160 
7121 7121 7160 7161 7122 7122 7161 7162 7123 
7123 7162 7163 7124 7124 7163 7164 7125 7125 
7164 7165 7126 7126 7165 7166 7127 7127 7166 
7167 7128 7128 7167 7168 7129 7129 7168 7169 
7130 7130 7169 493 494 171 172 7170 7131 
7131 7170 7171 7132 7132 7171 7172 7133 7133 
7172 7173 7134 7134 7173 7174 7135 7135 7174 
7175 7136 7136 7175 7176 7137 7137 7176 7177 
7138 7138 7177 7178 7139 7139 7178 7179 7140 
7140 7179 7180 7141 7141 7180 7181 7142 7142 
7181 7182 7143 7143 7182 7183 7144 7144 7183 
7184 7145 7145 7184 7185 7146 7146 7185 7186 
7147 7147 7186 7187 7148 7148 7187 7188 7149 
7149 7188 7189 7150 7150 7189 7190 7151 7151 
7190 7191 7152 7152 7191 7192 7153 7153 7192 
7193 7154 7154 7193 7194 7155 7155 7194 7195 
7156 7156 7195 7196 7157 7157 7196 7197 7158 
7158 7197 7198 7159 7159 7198 7199 7160 7160 
7199 7200 7161 7161 7200 7201 7162 7162 7201 
7202 7163 7163 7202 7203 7164 7164 7203 7204 
7165 7165 7204 7205 7166 7166 7205 7206 7167 
7167 7206 7207 7168 7168 7207 7208 7169 7169 
7208 492 493 172 173 7209 7170 7170 7209 
7210 7171 7171 7210 7211 7172 7172 7211 7212 
7173 7173 7212 7213 7174 7174 7213 7214 7175 
7175 7214 7215 7176 7176 7215 7216 7177 7177 
7216 7217 7178 7178 7217 7218 7179 7179 7218 
7219 7180 7180 7219 7220 7181 7181 7220 7221 
7182 7182 7221 7222 7183 7183 7222 7223 7184 
7184 7223 7224 7185 7185 7224 7225 7186 7186 
7225 7226 7187 7187 7226 7227 7188 7188 7227 
7228 7189 7189 7228 7229 7190 7190 7229 7230 
7191 7191 7230 7231 7192 7192 7231 7232 7193 
7193 7232 7233 7194 7194 7233 7234 7195 7195 
7234 7235 7196 7196 7235 7236 7197 7197 7236 
7237 7198 7198 7237 7238 7199 7199 7238 7239 
7200 7200 7239 7240 7201 7201 7240 7241 7202 
7202 7241 7242 7203 7203 7242 7243 7204 7204 
7243 7244 7205 7205 7244 7245 7206 7206 7245 
7246 7207 7207 7246 7247 7208 7208 7247 491 
492 173 174 7248 7209 7209 7248 7249 7210 
7210 7249 7250 7211 7211 7250 7251 7212 7212 
7251 7252 7213 7213 7252 7253 7214 7214 7253 
7254 7215 7215 7254 7255 7216 7216 7255 7256 
7217 7217 7256 7257 7218 7218 7257 7258 7219 
7219 7258 7259 7220 7220 7259 7260 7221 7221 
7260 7261 7222 7222 7261 7262 7223 7223 7262 
7263 7224 7224 7263 7264 7225 7225 7264 7265 
7226 7226 7265 7266 7227 7227 7266 7267 7228 
7228 7267 7268 7229 7229 7268 7269 7230 7230 
7269 7270 7231 7231 7270 7271 7232 7232 7271 
7272 7233 7233 7272 7273 7234 7234 7273 7274 
7235 7235 7274 7275 7236 7236 7275 7276 7237 
7237 7276 7277 7238 7238 7277 7278 7239 7239 
7278 7279 7240 7240 7279 7280 7241 7241 7280 
7281 7242 7242 7281 7282 7243 7243 7282 7283 
7244 7244 7283 7284 7245 7245 7284 7285 7246 
7246 7285 7286 7247 7247 7286 490 491 174 
175 7287 7248 7248 7287 7288 7249 7249 7288 
7289 7250 7250 7289 7290 7251 7251 7290 7291 
7252 7252 7291 7292 7253 7253 7292 7293 7254 
7254 7293 7294 7255 7255 7294 7295 7256 7256 
7295 7296 7257 7257 7296 7297 7258 7258 7297 
7298 7259 7259 7298 7299 7260 7260 7299 7300 
7261 7261 7300 7301 7262 7262 7301 7302 7263 
7263 7302 7303 7264 7264 7303 7304 7265 7265 
7304 7305 7266 7266 7305 7306 7267 7267 7306 
7307 7268 7268 7307 7308 7269 7269 7308 7309 
7270 7270 7309 7310 7271 7271 7310 7311 7272 
7272 7311 7312 7273 7273 7312 7313 7274 7274 
7313 7314 7275 7275 7314 7315 7276 7276 7315 
7316 7277 7277 7316 7317 7278 7278 7317 7318 
7279 7279 7318 7319 7280 7280 7319 7320 7281 
7281 7320 7321 7282 7282 7321 7322 7283 7283 
7322 7323 7284 7284 7323 7324 7285 7285 7324 
7325 7286 7286 7325 489 490 175 176 7326 
7287 7287 7326 7327 7288 7288 7327 7328 7289 
7289 7328 7329 7290 7290 7329 7330 7291 7291 
7330 7331 7292 7292 7331 7332 7293 7293 7332 
7333 7294 7294 7333 7334 7295 7295 7334 7335 
7296 7296 7335 7336 7297 7297 7336 7337 7298 
7298 7337 7338 7299 7299 7338 7339 7300 7300 
7339 7340 7301 7301 7340 7341 7302 7302 7341 
7342 7303 7303 7342 7343 7304 7304 7343 7344 
7305 7305 7344 7345 7306 7306 7345 7346 7307 
7307 7346 7347 7308 7308 7347 7348 7309 7309 
7348 7349 7310 7310 7349 7350 7311 7311 7350 
7351 7312 7312 7351 7352 7313 7313 7352 7353 
7314 7314 7353 7354 7315 7315 7354 7355 7316 
7316 7355 7356 7317 7317 7356 7357 7318 7318 
7357 7358 7319 7319 7358 7359 7320 7320 7359 
7360 7321 7321 7360 7361 7322 7322 7361 7362 
7323 7323 7362 7363 7324 7324 7363 7364 7325 
7325 7364 488 489 176 177 7365 7326 7326 
7365 7366 7327 7327 7366 7367 7328 7328 7367 
7368 7329 7329 7368 7369 7330 7330 7369 7370 
7331 7331 7370 7371 7332 7332 7371 7372 7333 
7333 7372 7373 7334 7334 7373 7374 7335 7335 
7374 7375 7336 7336 7375 7376 7337 7337 7376 
7377 7338 7338 7377 7378 7339 7339 7378 7379 
7340 7340 7379 7380 7341 7341 7380 7381 7342 
7342 7381 7382 7343 7343 7382 7383 7344 7344 
7383 7384 7345 7345 7384 7385 7346 7346 7385 
7386 7347 7347 7386 7387 7348 7348 7387 7388 
7349 7349 7388 7389 7350 7350 7389 7390 7351 
7351 7390 7391 7352 7352 7391 7392 7353 7353 
7392 7393 7354 7354 7393 7394 7355 7355 7394 
7395 7356 7356 7395 7396 7357 7357 7396 7397 
7358 7358 7397 7398 7359 7359 7398 7399 7360 
7360 7399 7400 7361 7361 7400 7401 7362 7362 
7401 7402 7363 7363 7402 7403 7364 7364 7403 
487 488 177 178 7404 7365 7365 7404 7405 
7366 7366 7405 7406 7367 7367 7406 7407 7368 
7368 7407 7408 7369 7369 7408 7409 7370 7370 
7409 7410 7371 7371 7410 7411 7372 7372 7411 
7412 7373 7373 7412 7413 7374 7374 7413 7414 
7375 7375 7414 7415 7376 7376 7415 7416 7377 
7377 7416 7417 7378 7378 7417 7418 7379 7379 
7418 7419 7380 7380 7419 7420 7381 7381 7420 
7421 7382 7382 7421 7422 7383 7383 7422 7423 
7384 7384 7423 7424 7385 7385 7424 7425 7386 
7386 7425 7426 7387 7387 7426 7427 7388 7388 
7427 7428 7389 7389 7428 7429 7390 7390 7429 
7430 7391 7391 7430 7431 7392 7392 7431 7432 
7393 7393 7432 7433 7394 7394 7433 7434 7395 
7395 7434 7435 7396 7396 7435 7436 7397 7397 
7436 7437 7398 7398 7437 7438 7399 7399 7438 
7439 7400 7400 7439 7440 7401 7401 7440 7441 
7402 7402 7441 7442 7403 7403 7442 486 487 
178 179 7443 7404 7404 7443 7444 7405 7405 
7444 7445 7406 7406 7445 7446 7407 7407 7446 
7447 7408 7408 7447 7448 7409 7409 7448 7449 
7410 7410 7449 7450 7411 7411 7450 7451 7412 
7412 7451 7452 7413 7413 7452 7453 7414 7414 
7453 7454 7415 7415 7454 7455 7416 7416 7455 
7456 7417 7417 7456 7457 7418 7418 7457 7458 
7419 7419 7458 7459 7420 7420 7459 7460 7421 
7421 7460 7461 7422 7422 7461 7462 7423 7423 
7462 7463 7424 7424 7463 7464 7425 7425 7464 
7465 7426 7426 7465 7466 7427 7427 7466 7467 
7428 7428 7467 7468 7429 7429 7468 7469 7430 
7430 7469 7470 7431 7431 7470 7471 7432 7432 
7471 7472 7433 7433 7472 7473 7434 7434 7473 
7474 7435 7435 7474 7475 7436 7436 7475 7476 
7437 7437 7476 7477 7438 7438 7477 7478 7439 
7439 7478 7479 7440 7440 7479 7480 7441 7441 
7480 7481 7442 7442 7481 485 486 179 180 
7482 7443 7443 7482 7483 7444 7444 7483 7484 
7445 7445 7484 7485 7446 7446 7485 7486 7447 
7447 7486 7487 7448 7448 7487 7488 7449 7449 
7488 7489 7450 7450 7489 7490 7451 7451 7490 
7491 7452 7452 7491 7492 7453 7453 7492 7493 
7454 7454 7493 7494 7455 7455 7494 7495 7456 
7456 7495 7496 7457 7457 7496 7497 7458 7458 
7497 7498 7459 7459 7498 7499 7460 7460 7499 
7500 7461 7461 7500 7501 7462 7462 7501 7502 
7463 7463 7502 7503 7464 7464 7503 7504 7465 
7465 7504 7505 7466 7466 7505 7506 7467 7467 
7506 7507 7468 7468 7507 7508 7469 7469 7508 
7509 7470 7470 7509 7510 7471 7471 7510 7511 
7472 7472 7511 7512 7473 7473 7512 7513 7474 
7474 7513 7514 7475 7475 7514 7515 7476 7476 
7515 7516 7477 7477 7516 7517 7478 7478 7517 
7518 7479 7479 7518 7519 7480 7480 7519 7520 
7481 7481 7520 484 485 180 181 7521 7482 
7482 7521 7522 7483 7483 7522 7523 7484 7484 
7523 7524 7485 7485 7524 7525 7486 7486 7525 
7526 7487 7487 7526 7527 7488 7488 7527 7528 
7489 7489 7528 7529 7490 7490 7529 7530 7491 
7491 7530 7531 7492 7492 7531 7532 7493 7493 
7532 7533 7494 7494 7533 7534 7495 7495 7534 
7535 7496 7496 7535 7536 7497 7497 7536 7537 
7498 7498 7537 7538 7499 7499 7538 7539 7500 
7500 7539 7540 7501 7501 7540 7541 7502 7502 
7541 7542 7503 7503 7542 7543 7504 7504 7543 
7544 7505 7505 7544 7545 7506 7506 7545 7546 
7507 7507 7546 7547 7508 7508 7547 7548 7509 
7509 7548 7549 7510 7510 7549 7550 7511 7511 
7550 7551 7512 7512 7551 7552 7513 7513 7552 
7553 7514 7514 7553 7554 7515 7515 7554 7555 
7516 7516 7555 7556 7517 7517 7556 7557 7518 
7518 7557 7558 7519 7519 7558 7559 7520 7520 
7559 483 484 181 182 7560 7521 7521 7560 
7561 7522 7522 7561 7562 7523 7523 7562 7563 
7524 7524 7563 7564 7525 7525 7564 7565 7526 
7526 7565 7566 7527 7527 7566 7567 7528 7528 
7567 7568 7529 7529 7568 7569 7530 7530 7569 
7570 7531 7531 7570 7571 7532 7532 7571 7572 
7533 7533 7572 7573 7534 7534 7573 7574 7535 
7535 7574 7575 7536 7536 7575 7576 7537 7537 
7576 7577 7538 7538 7577 7578 7539 7539 7578 
7579 7540 7540 7579 7580 7541 7541 7580 7581 
7542 7542 7581 7582 7543 7543 7582 7583 7544 
7544 7583 7584 7545 7545 7584 7585 7546 7546 
7585 7586 7547 7547 7586 7587 7548 7548 7587 
7588 7549 7549 7588 7589 7550 7550 7589 7590 
7551 7551 7590 7591 7552 7552 7591 7592 7553 
7553 7592 7593 7554 7554 7593 7594 7555 7555 
7594 7595 7556 7556 7595 7596 7557 7557 7596 
7597 7558 7558 7597 7598 7559 7559 7598 482 
483 182 183 7599 7560 7560 7599 7600 7561 
7561 7600 7601 7562 7562 7601 7602 7563 7563 
7602 7603 7564 7564 7603 7604 7565 7565 7604 
7605 7566 7566 7605 7606 7567 7567 7606 7607 
7568 7568 7607 7608 7569 7569 7608 7609 7570 
7570 7609 7610 7571 7571 7610 7611 7572 7572 
7611 7612 7573 7573 7612 7613 7574 7574 7613 
7614 7575 7575 7614 7615 7576 7576 7615 7616 
7577 7577 7616 7617 7578 7578 7617 7618 7579 
7579 7618 7619 7580 7580 7619 7620 7581 7581 
7620 7621 7582 7582 7621 7622 7583 7583 7622 
7623 7584 7584 7623 7624 7585 7585 7624 7625 
7586 7586 7625 7626 7587 7587 7626 7627 7588 
7588 7627 7628 7589 7589 7628 7629 7590 7590 
7629 7630 7591 7591 7630 7631 7592 7592 7631 
7632 7593 7593 7632 7633 7594 7594 7633 7634 
7595 7595 7634 7635 7596 7596 7635 7636 7597 
7597 7636 7637 7598 7598 7637 481 482 183 
184 7638 7599 7599 7638 7639 7600 7600 7639 
7640 7601 7601 7640 7641 7602 7602 7641 7642 
7603 7603 7642 7643 7604 7604 7643 7644 7605 
7605 7644 7645 7606 7606 7645 7646 7607 7607 
7646 7647 7608 7608 7647 7648 7609 7609 7648 
7649 7610 7610 7649 7650 7611 7611 7650 7651 
7612 7612 7651 7652 7613 7613 7652 7653 7614 
7614 7653 7654 7615 7615 7654 7655 7616 7616 
7655 7656 7617 7617 7656 7657 7618 7618 7657 
7658 7619 7619 7658 7659 7620 7620 7659 7660 
7621 7621 7660 7661 7622 7622 7661 7662 7623 
7623 7662 7663 7624 7624 7663 7664 7625 7625 
7664 7665 7626 7626 7665 7666 7627 7627 7666 
7667 7628 7628 7667 7668 7629 7629 7668 7669 
7630 7630 7669 7670 7631 7631 7670 7671 7632 
7632 7671 7672 7633 7633 7672 7673 7634 7634 
7673 7674 7635 7635 7674 7675 7636 7636 7675 
7676 7637 7637 7676 480 481 184 185 7677 
7638 7638 7677 7678 7639 7639 7678 7679 7640 
7640 7679 7680 7641 7641 7680 7681 7642 7642 
7681 7682 7643 7643 7682 7683 7644 7644 7683 
7684 7645 7645 7684 7685 7646 7646 7685 7686 
7647 7647 7686 7687 7648 7648 7687 7688 7649 
7649 7688 7689 7650 7650 7689 7690 7651 7651 
7690 7691 7652 7652 7691 7692 7653 7653 7692 
7693 7654 7654 7693 7694 7655 7655 7694 7695 
7656 7656 7695 7696 7657 7657 7696 7697 7658 
7658 7697 7698 7659 7659 7698 7699 7660 7660 
7699 7700 7661 7661 7700 7701 7662 7662 7701 
7702 7663 7663 7702 7703 7664 7664 7703 7704 
7665 7665 7704 7705 7666 7666 7705 7706 7667 
7667 7706 7707 7668 7668 7707 7708 7669 7669 
7708 7709 7670 7670 7709 7710 7671 7671 7710 
7711 7672 7672 7711 7712 7673 7673 7712 7713 
7674 7674 7713 7714 7675 7675 7714 7715 7676 
7676 7715 479 480 185 186 7716 7677 7677 
7716 7717 7678 7678 7717 7718 7679 7679 7718 
7719 7680 7680 7719 7720 7681 7681 7720 7721 
7682 7682 7721 7722 7683 7683 7722 7723 7684 
7684 7723 7724 7685 7685 7724 7725 7686 7686 
7725 7726 7687 7687 7726 7727 7688 7688 7727 
7728 7689 7689 7728 7729 7690 7690 7729 7730 
7691 7691 7730 7731 7692 7692 7731 7732 7693 
7693 7732 7733 7694 7694 7733 7734 7695 7695 
7734 7735 7696 7696 7735 7736 7697 7697 7736 
7737 7698 7698 7737 7738 7699 7699 7738 7739 
7700 7700 7739 7740 7701 7701 7740 7741 7702 
7702 7741 7742 7703 7703 7742 7743 7704 7704 
7743 7744 7705 7705 7744 7745 7706 7706 7745 
7746 7707 7707 7746 7747 7708 7708 7747 7748 
7709 7709 7748 7749 7710 7710 7749 7750 7711 
7711 7750 7751 7712 7712 7751 7752 7713 7713 
7752 7753 7714 7714 7753 7754 7715 7715 7754 
478 479 186 187 7755 7716 7716 7755 7756 
7717 7717 7756 7757 7718 7718 7757 7758 7719 
7719 7758 7759 7720 7720 7759 7760 7721 7721 
7760 7761 7722 7722 7761 7762 7723 7723 7762 
7763 7724 7724 7763 7764 7725 7725 7764 7765 
7726 7726 7765 7766 7727 7727 7766 7767 7728 
7728 7767 7768 7729 7729 7768 7769 7730 7730 
7769 7770 7731 7731 7770 7771 7732 7732 7771 
7772 7733 7733 7772 7773 7734 7734 7773 7774 
7735 7735 7774 7775 7736 7736 7775 7776 7737 
7737 7776 7777 7738 7738 7777 7778 7739 7739 
7778 7779 7740 7740 7779 7780 7741 7741 7780 
7781 7742 7742 7781 7782 7743 7743 7782 7783 
7744 7744 7783 7784 7745 7745 7784 7785 7746 
7746 7785 7786 7747 7747 7786 7787 7748 7748 
7787 7788 7749 7749 7788 7789 7750 7750 7789 
7790 7751 7751 7790 7791 7752 7752 7791 7792 
7753 7753 7792 7793 7754 7754 7793 477 478 
187 188 7794 7755 7755 7794 7795 7756 7756 
7795 7796 7757 7757 7796 7797 7758 7758 7797 
7798 7759 7759 7798 7799 7760 7760 7799 7800 
7761 7761 7800 7801 7762 7762 7801 7802 7763 
7763 7802 7803 7764 7764 7803 7804 7765 7765 
7804 7805 7766 7766 7805 7806 7767 7767 7806 
7807 7768 7768 7807 7808 7769 7769 7808 7809 
7770 7770 7809 7810 7771 7771 7810 7811 7772 
7772 7811 7812 7773 7773 7812 7813 7774 7774 
7813 7814 7775 7775 7814 7815 7776 7776 7815 
7816 7777 7777 7816 7817 7778 7778 7817 7818 
7779 7779 7818 7819 7780 7780 7819 7820 7781 
7781 7820 7821 7782 7782 7821 7822 7783 7783 
7822 7823 7784 7784 7823 7824 7785 7785 7824 
7825 7786 7786 7825 7826 7787 7787 7826 7827 
7788 7788 7827 7828 7789 7789 7828 7829 7790 
7790 7829 7830 7791 7791 7830 7831 7792 7792 
7831 7832 7793 7793 7832 476 477 188 189 
7833 7794 7794 7833 7834 7795 7795 7834 7835 
7796 7796 7835 7836 7797 7797 7836 7837 7798 
7798 7837 7838 7799 7799 7838 7839 7800 7800 
7839 7840 7801 7801 7840 7841 7802 7802 7841 
7842 7803 7803 7842 7843 7804 7804 7843 7844 
7805 7805 7844 7845 7806 7806 7845 7846 7807 
7807 7846 7847 7808 7808 7847 7848 7809 7809 
7848 7849 7810 7810 7849 7850 7811 7811 7850 
7851 7812 7812 7851 7852 7813 7813 7852 7853 
7814 7814 7853 7854 7815 7815 7854 7855 7816 
7816 7855 7856 7817 7817 7856 7857 7818 7818 
7857 7858 7819 7819 7858 7859 7820 7820 7859 
7860 7821 7821 7860 7861 7822 7822 7861 7862 
7823 7823 7862 7863 7824 7824 7863 7864 7825 
7825 7864 7865 7826 7826 7865 7866 7827 7827 
7866 7867 7828 7828 7867 7868 7829 7829 7868 
7869 7830 7830 7869 7870 7831 7831 7870 7871 
7832 7832 7871 475 476 189 190 7872 7833 
7833 7872 7873 7834 7834 7873 7874 7835 7835 
7874 7875 7836 7836 7875 7876 7837 7837 7876 
7877 7838 7838 7877 7878 7839 7839 7878 7879 
7840 7840 7879 7880 7841 7841 7880 7881 7842 
7842 7881 7882 7843 7843 7882 7883 7844 7844 
7883 7884 7845 7845 7884 7885 7846 7846 7885 
7886 7847 7847 7886 7887 7848 7848 7887 7888 
7849 7849 7888 7889 7850 7850 7889 7890 7851 
7851 7890 7891 7852 7852 7891 7892 7853 7853 
7892 7893 7854 7854 7893 7894 7855 7855 7894 
7895 7856 7856 7895 7896 7857 7857 7896 7897 
7858 7858 7897 7898 7859 7859 7898 7899 7860 
7860 7899 7900 7861 7861 7900 7901 7862 7862 
7901 7902 7863 7863 7902 7903 7864 7864 7903 
7904 7865 7865 7904 7905 7866 7866 7905 7906 
7867 7867 7906 7907 7868 7868 7907 7908 7869 
7869 7908 7909 7870 7870 7909 7910 7871 7871 
7910 474 475 190 191 7911 7872 7872 7911 
7912 7873 7873 7912 7913 7874 7874 7913 7914 
7875 7875 7914 7915 7876 7876 7915 7916 7877 
7877 7916 7917 7878 7878 7917 7918 7879 7879 
7918 7919 7880 7880 7919 7920 7881 7881 7920 
7921 7882 7882 7921 7922 7883 7883 7922 7923 
7884 7884 7923 7924 7885 7885 7924 7925 7886 
7886 7925 7926 7887 7887 7926 7927 7888 7888 
7927 7928 7889 7889 7928 7929 7890 7890 7929 
7930 7891 7891 7930 7931 7892 7892 7931 7932 
7893 7893 7932 7933 7894 7894 7933 7934 7895 
7895 7934 7935 7896 7896 7935 7936 7897 7897 
7936 7937 7898 7898 7937 7938 7899 7899 7938 
7939 7900 7900 7939 7940 7901 7901 7940 7941 
7902 7902 7941 7942 7903 7903 7942 7943 7904 
7904 7943 7944 7905 7905 7944 7945 7906 7906 
7945 7946 7907 7907 7946 7947 7908 7908 7947 
7948 7909 7909 7948 7949 7910 7910 7949 473 
474 191 192 7950 7911 7911 7950 7951 7912 
7912 7951 7952 7913 7913 7952 7953 7914 7914 
7953 7954 7915 7915 7954 7955 7916 7916 7955 
7956 7917 7917 7956 7957 7918 7918 7957 7958 
7919 7919 7958 7959 7920 7920 7959 7960 7921 
7921 7960 7961 7922 7922 7961 7962 7923 7923 
7962 7963 7924 7924 7963 7964 7925 7925 7964 
7965 7926 7926 7965 7966 7927 7927 7966 7967 
7928 7928 7967 7968 7929 7929 7968 7969 7930 
7930 7969 7970 7931 7931 7970 7971 7932 7932 
7971 7972 7933 7933 7972 7973 7934 7934 7973 
7974 7935 7935 7974 7975 7936 7936 7975 7976 
7937 7937 7976 7977 7938 7938 7977 7978 7939 
7939 7978 7979 7940 7940 7979 7980 7941 7941 
7980 7981 7942 7942 7981 7982 7943 7943 7982 
7983 7944 7944 7983 7984 7945 7945 7984 7985 
7946 7946 7985 7986 7947 7947 7986 7987 7948 
7948 7987 7988 7949 7949 7988 472 473 192 
193 7989 7950 7950 7989 7990 7951 7951 7990 
7991 7952 7952 7991 7992 7953 7953 7992 7993 
7954 7954 7993 7994 7955 7955 7994 7995 7956 
7956 7995 7996 7957 7957 7996 7997 7958 7958 
7997 7998 7959 7959 7998 7999 7960 7960 7999 
8000 7961 7961 8000 8001 7962 7962 8001 8002 
7963 7963 8002 8003 7964 7964 8003 8004 7965 
7965 8004 8005 7966 7966 8005 8006 7967 7967 
8006 8007 7968 7968 8007 8008 7969 7969 8008 
8009 7970 7970 8009 8010 7971 7971 8010 8011 
7972 7972 8011 8012 7973 7973 8012 8013 7974 
7974 8013 8014 7975 7975 8014 8015 7976 7976 
8015 8016 7977 7977 8016 8017 7978 7978 8017 
8018 7979 7979 8018 8019 7980 7980 8019 8020 
7981 7981 8020 8021 7982 7982 8021 8022 7983 
7983 8022 8023 7984 7984 8023 8024 7985 7985 
8024 8025 7986 7986 8025 8026 7987 7987 8026 
8027 7988 7988 8027 471 472 193 194 8028 
7989 7989 8028 8029 7990 7990 8029 8030 7991 
7991 8030 8031 7992 7992 8031 8032 7993 7993 
8032 8033 7994 7994 8033 8034 7995 7995 8034 
8035 7996 7996 8035 8036 7997 7997 8036 8037 
7998 7998 8037 8038 7999 7999 8038 8039 8000 
8000 8039 8040 8001 8001 8040 8041 8002 8002 
8041 8042 8003 8003 8042 8043 8004 8004 8043 
8044 8005 8005 8044 8045 8006 8006 8045 8046 
8007 8007 8046 8047 8008 8008 8047 8048 8009 
8009 8048 8049 8010 8010 8049 8050 8011 8011 
8050 8051 8012 8012 8051 8052 8013 8013 8052 
8053 8014 8014 8053 8054 8015 8015 8054 8055 
8016 8016 8055 8056 8017 8017 8056 8057 8018 
8018 8057 8058 8019 8019 8058 8059 8020 8020 
8059 8060 8021 8021 8060 8061 8022 8022 8061 
8062 8023 8023 8062 8063 8024 8024 8063 8064 
8025 8025 8064 8065 8026 8026 8065 8066 8027 
8027 8066 470 471 194 195 8067 8028 8028 
8067 8068 8029 8029 8068 8069 8030 8030 8069 
8070 8031 8031 8070 8071 8032 8032 8071 8072 
8033 8033 8072 8073 8034 8034 8073 8074 8035 
8035 8074 8075 8036 8036 8075 8076 8037 8037 
8076 8077 8038 8038 8077 8078 8039 8039 8078 
8079 8040 8040 8079 8080 8041 8041 8080 8081 
8042 8042 8081 8082 8043 8043 8082 8083 8044 
8044 8083 8084 8045 8045 8084 8085 8046 8046 
8085 8086 8047 8047 8086 8087 8048 8048 8087 
8088 8049 8049 8088 8089 8050 8050 8089 8090 
8051 8051 8090 8091 8052 8052 8091 8092 8053 
8053 8092 8093 8054 8054 8093 8094 8055 8055 
8094 8095 8056 8056 8095 8096 8057 8057 8096 
8097 8058 8058 8097 8098 8059 8059 8098 8099 
8060 8060 8099 8100 8061 8061 8100 8101 8062 
8062 8101 8102 8063 8063 8102 8103 8064 8064 
8103 8104 8065 8065 8104 8105 8066 8066 8105 
469 470 195 196 8106 8067 8067 8106 8107 
8068 8068 8107 8108 8069 8069 8108 8109 8070 
8070 8109 8110 8071 8071 8110 8111 8072 8072 
8111 8112 8073 8073 8112 8113 8074 8074 8113 
8114 8075 8075 8114 8115 8076 8076 8115 8116 
8077 8077 8116 8117 8078 8078 8117 8118 8079 
8079 8118 8119 8080 8080 8119 8120 8081 8081 
8120 8121 8082 8082 8121 8122 8083 8083 8122 
8123 8084 8084 8123 8124 8085 8085 8124 8125 
8086 8086 8125 8126 8087 8087 8126 8127 8088 
8088 8127 8128 8089 8089 8128 8129 8090 8090 
8129 8130 8091 8091 8130 8131 8092 8092 8131 
8132 8093 8093 8132 8133 8094 8094 8133 8134 
8095 8095 8134 8135 8096 8096 8135 8136 8097 
8097 8136 8137 8098 8098 8137 8138 8099 8099 
8138 8139 8100 8100 8139 8140 8101 8101 8140 
8141 8102 8102 8141 8142 8103 8103 8142 8143 
8104 8104 8143 8144 8105 8105 8144 468 469 
196 197 8145 8106 8106 8145 8146 8107 8107 
8146 8147 8108 8108 8147 8148 8109 8109 8148 
8149 8110 8110 8149 8150 8111 8111 8150 8151 
8112 8112 8151 8152 8113 8113 8152 8153 8114 
8114 8153 8154 8115 8115 8154 8155 8116 8116 
8155 8156 8117 8117 8156 8157 8118 8118 8157 
8158 8119 8119 8158 8159 8120 8120 8159 8160 
8121 8121 8160 8161 8122 8122 8161 8162 8123 
8123 8162 8163 8124 8124 8163 8164 8125 8125 
8164 8165 8126 8126 8165 8166 8127 8127 8166 
8167 8128 8128 8167 8168 8129 8129 8168 8169 
8130 8130 8169 8170 8131 8131 8170 8171 8132 
8132 8171 8172 8133 8133 8172 8173 8134 8134 
8173 8174 8135 8135 8174 8175 8136 8136 8175 
8176 8137 8137 8176 8177 8138 8138 8177 8178 
8139 8139 8178 8179 8140 8140 8179 8180 8141 
8141 8180 8181 8142 8142 8181 8182 8143 8143 
8182 8183 8144 8144 8183 467 468 197 198 
8184 8145 8145 8184 8185 8146 8146 8185 8186 
8147 8147 8186 8187 8148 8148 8187 8188 8149 
8149 8188 8189 8150 8150 8189 8190 8151 8151 
8190 8191 8152 8152 8191 8192 8153 8153 8192 
8193 8154 8154 8193 8194 8155 8155 8194 8195 
8156 8156 8195 8196 8157 8157 8196 8197 8158 
8158 8197 8198 8159 8159 8198 8199 8160 8160 
8199 8200 8161 8161 8200 8201 8162 8162 8201 
8202 8163 8163 8202 8203 8164 8164 8203 8204 
8165 8165 8204 8205 8166 8166 8205 8206 8167 
8167 8206 8207 8168 8168 8207 8208 8169 8169 
8208 8209 8170 8170 8209 8210 8171 8171 8210 
8211 8172 8172 8211 8212 8173 8173 8212 8213 
8174 8174 8213 8214 8175 8175 8214 8215 8176 
8176 8215 8216 8177 8177 8216 8217 8178 8178 
8217 8218 8179 8179 8218 8219 8180 8180 8219 
8220 8181 8181 8220 8221 8182 8182 8221 8222 
8183 8183 8222 466 467 198 199 8223 8184 
8184 8223 8224 8185 8185 8224 8225 8186 8186 
8225 8226 8187 8187 8226 8227 8188 8188 8227 
8228 8189 8189 8228 8229 8190 8190 8229 8230 
8191 8191 8230 8231 8192 8192 8231 8232 8193 
8193 8232 8233 8194 8194 8233 8234 8195 8195 
8234 8235 8196 8196 8235 8236 8197 8197 8236 
8237 8198 8198 8237 8238 8199 8199 8238 8239 
8200 8200 8239 8240 8201 8201 8240 8241 8202 
8202 8241 8242 8203 8203 8242 8243 8204 8204 
8243 8244 8205 8205 8244 8245 8206 8206 8245 
8246 8207 8207 8246 8247 8208 8208 8247 8248 
8209 8209 8248 8249 8210 8210 8249 8250 8211 
8211 8250 8251 8212 8212 8251 8252 8213 8213 
8252 8253 8214 8214 8253 8254 8215 8215 8254 
8255 8216 8216 8255 8256 8217 8217 8256 8257 
8218 8218 8257 8258 8219 8219 8258 8259 8220 
8220 8259 8260 8221 8221 8260 8261 8222 8222 
8261 465 466 199 200 8262 8223 8223 8262 
8263 8224 8224 8263 8264 8225 8225 8264 8265 
8226 8226 8265 8266 8227 8227 8266 8267 8228 
8228 8267 8268 8229 8229 8268 8269 8230 8230 
8269 8270 8231 8231 8270 8271 8232 8232 8271 
8272 8233 8233 8272 8273 8234 8234 8273 8274 
8235 8235 8274 8275 8236 8236 8275 8276 8237 
8237 8276 8277 8238 8238 8277 8278 8239 8239 
8278 8279 8240 8240 8279 8280 8241 8241 8280 
8281 8242 8242 8281 8282 8243 8243 8282 8283 
8244 8244 8283 8284 8245 8245 8284 8285 8246 
8246 8285 8286 8247 8247 8286 8287 8248 8248 
8287 8288 8249 8249 8288 8289 8250 8250 8289 
8290 8251 8251 8290 8291 8252 8252 8291 8292 
8253 8253 8292 8293 8254 8254 8293 8294 8255 
8255 8294 8295 8256 8256 8295 8296 8257 8257 
8296 8297 8258 8258 8297 8298 8259 8259 8298 
8299 8260 8260 8299 8300 8261 8261 8300 464 
465 200 201 8301 8262 8262 8301 8302 8263 
8263 8302 8303 8264 8264 8303 8304 8265 8265 
8304 8305 8266 8266 8305 8306 8267 8267 8306 
8307 8268 8268 8307 8308 8269 8269 8308 8309 
8270 8270 8309 8310 8271 8271 8310 8311 8272 
8272 8311 8312 8273 8273 8312 8313 8274 8274 
8313 8314 8275 8275 8314 8315 8276 8276 8315 
8316 8277 8277 8316 8317 8278 8278 8317 8318 
8279 8279 8318 8319 8280 8280 8319 8320 8281 
8281 8320 8321 8282 8282 8321 8322 8283 8283 
8322 8323 8284 8284 8323 8324 8285 8285 8324 
8325 8286 8286 8325 8326 8287 8287 8326 8327 
8288 8288 8327 8328 8289 8289 8328 8329 8290 
8290 8329 8330 8291 8291 8330 8331 8292 8292 
8331 8332 8293 8293 8332 8333 8294 8294 8333 
8334 8295 8295 8334 8335 8296 8296 8335 8336 
8297 8297 8336 8337 8298 8298 8337 8338 8299 
8299 8338 8339 8300 8300 8339 463 464 201 
202 8340 8301 8301 8340 8341 8302 8302 8341 
8342 8303 8303 8342 8343 8304 8304 8343 8344 
8305 8305 8344 8345 8306 8306 8345 8346 8307 
8307 8346 8347 8308 8308 8347 8348 8309 8309 
8348 8349 8310 8310 8349 8350 8311 8311 8350 
8351 8312 8312 8351 8352 8313 8313 8352 8353 
8314 8314 8353 8354 8315 8315 8354 8355 8316 
8316 8355 8356 8317 8317 8356 8357 8318 8318 
8357 8358 8319 8319 8358 8359 8320 8320 8359 
8360 8321 8321 8360 8361 8322 8322 8361 8362 
8323 8323 8362 8363 8324 8324 8363 8364 8325 
8325 8364 8365 8326 8326 8365 8366 8327 8327 
8366 8367 8328 8328 8367 8368 8329 8329 8368 
8369 8330 8330 8369 8370 8331 8331 8370 8371 
8332 8332 8371 8372 8333 8333 8372 8373 8334 
8334 8373 8374 8335 8335 8374 8375 8336 8336 
8375 8376 8337 8337 8376 8377 8338 8338 8377 
8378 8339 8339 8378 462 463 202 203 8379 
8340 8340 8379 8380 8341 8341 8380 8381 8342 
8342 8381 8382 8343 8343 8382 8383 8344 8344 
8383 8384 8345 8345 8384 8385 8346 8346 8385 
8386 8347 8347 8386 8387 8348 8348 8387 8388 
8349 8349 8388 8389 8350 8350 8389 8390 8351 
8351 8390 8391 8352 8352 8391 8392 8353 8353 
8392 8393 8354 8354 8393 8394 8355 8355 8394 
8395 8356 8356 8395 8396 8357 8357 8396 8397 
8358 8358 8397 8398 8359 8359 8398 8399 8360 
8360 8399 8400 8361 8361 8400 8401 8362 8362 
8401 8402 8363 8363 8402 8403 8364 8364 8403 
8404 8365 8365 8404 8405 8366 8366 8405 8406 
8367 8367 8406 8407 8368 8368 8407 8408 8369 
8369 8408 8409 8370 8370 8409 8410 8371 8371 
8410 8411 8372 8372 8411 8412 8373 8373 8412 
8413 8374 8374 8413 8414 8375 8375 8414 8415 
8376 8376 8415 8416 8377 8377 8416 8417 8378 
8378 8417 461 462 203 204 8418 8379 8379 
8418 8419 8380 8380 8419 8420 8381 8381 8420 
8421 8382 8382 8421 8422 8383 8383 8422 8423 
8384 8384 8423 8424 8385 8385 8424 8425 8386 
8386 8425 8426 8387 8387 8426 8427 8388 8388 
8427 8428 8389 8389 8428 8429 8390 8390 8429 
8430 8391 8391 8430 8431 8392 8392 8431 8432 
8393 8393 8432 8433 8394 8394 8433 8434 8395 
8395 8434 8435 8396 8396 8435 8436 8397 8397 
8436 8437 8398 8398 8437 8438 8399 8399 8438 
8439 8400 8400 8439 8440 8401 8401 8440 8441 
8402 8402 8441 8442 8403 8403 8442 8443 8404 
8404 8443 8444 8405 8405 8444 8445 8406 8406 
8445 8446 8407 8407 8446 8447 8408 8408 8447 
8448 8409 8409 8448 8449 8410 8410 8449 8450 
8411 8411 8450 8451 8412 8412 8451 8452 8413 
8413 8452 8453 8414 8414 8453 8454 8415 8415 
8454 8455 8416 8416 8455 8456 8417 8417 8456 
460 461 204 205 8457 8418 8418 8457 8458 
8419 8419 8458 8459 8420 8420 8459 8460 8421 
8421 8460 8461 8422 8422 8461 8462 8423 8423 
8462 8463 8424 8424 8463 8464 8425 8425 8464 
8465 8426 8426 8465 8466 8427 8427 8466 8467 
8428 8428 8467 8468 8429 8429 8468 8469 8430 
8430 8469 8470 8431 8431 8470 8471 8432 8432 
8471 8472 8433 8433 8472 8473 8434 8434 8473 
8474 8435 8435 8474 8475 8436 8436 8475 8476 
8437 8437 8476 8477 8438 8438 8477 8478 8439 
8439 8478 8479 8440 8440 8479 8480 8441 8441 
8480 8481 8442 8442 8481 8482 8443 8443 8482 
8483 8444 8444 8483 8484 8445 8445 8484 8485 
8446 8446 8485 8486 8447 8447 8486 8487 8448 
8448 8487 8488 8449 8449 8488 8489 8450 8450 
8489 8490 8451 8451 8490 8491 8452 8452 8491 
8492 8453 8453 8492 8493 8454 8454 8493 8494 
8455 8455 8494 8495 8456 8456 8495 459 460 
205 206 8496 8457 8457 8496 8497 8458 8458 
8497 8498 8459 8459 8498 8499 8460 8460 8499 
8500 8461 8461 8500 8501 8462 8462 8501 8502 
8463 8463 8502 8503 8464 8464 8503 8504 8465 
8465 8504 8505 8466 8466 8505 8506 8467 8467 
8506 8507 8468 8468 8507 8508 8469 8469 8508 
8509 8470 8470 8509 8510 8471 8471 8510 8511 
8472 8472 8511 8512 8473 8473 8512 8513 8474 
8474 8513 8514 8475 8475 8514 8515 8476 8476 
8515 8516 8477 8477 8516 8517 8478 8478 8517 
8518 8479 8479 8518 8519 8480 8480 8519 8520 
8481 8481 8520 8521 8482 8482 8521 8522 8483 
8483 8522 8523 8484 8484 8523 8524 8485 8485 
8524 8525 8486 8486 8525 8526 8487 8487 8526 
8527 8488 8488 8527 8528 8489 8489 8528 8529 
8490 8490 8529 8530 8491 8491 8530 8531 8492 
8492 8531 8532 8493 8493 8532 8533 8494 8494 
8533 8534 8495 8495 8534 458 459 206 1 
696 8496 8496 696 697 8497 8497 697 698 
8498 8498 698 699 8499 8499 699 700 8500 
8500 700 701 8501 8501 701 702 8502 8502 
702 703 8503 8503 703 704 8504 8504 704 
705 8505 8505 705 706 8506 8506 706 707 
8507 8507 707 708 8508 8508 708 709 8509 
8509 709 710 8510 8510 710 711 8511 8511 
711 712 8512 8512 712 713 8513 8513 713 
714 8514 8514 714 715 8515 8515 715 716 
8516 8516 716 717 8517 8517 717 718 8518 
8518 718 719 8519 8519 719 720 8520 8520 
720 721 8521 8521 721 722 8522 8522 722 
723 8523 8523 723 724 8524 8524 724 725 
8525 8525 725 726 8526 8526 726 727 8527 
8527 727 728 8528 8528 728 729 8529 8529 
729 730 8530 8530 730 731 8531 8531 731 
732 8532 8532 732 733 8533 8533 733 734 
8534 8534 734 6 458 1 207 8535 696 
696 8535 8536 697 697 8536 8537 698 698 
8537 8538 699 699 8538 8539 700 700 8539 
8540 701 701 8540 8541 702 702 8541 8542 
703 703 8542 8543 704 704 8543 8544 705 
705 8544 8545 706 706 8545 8546 707 707 
8546 8547 708 708 8547 8548 709 709 8548 
8549 710 710 8549 8550 711 711 8550 8551 
712 712 8551 8552 713 713 8552 8553 714 
714 8553 8554 715 715 8554 8555 716 716 
8555 8556 717 717 8556 8557 718 718 8557 
8558 719 719 8558 8559 720 720 8559 8560 
721 721 8560 8561 722 722 8561 8562 723 
723 8562 8563 724 724 8563 8564 725 725 
8564 8565 726 726 8565 8566 727 727 8566 
8567 728 728 8567 8568 729 729 8568 8569 
730 730 8569 8570 731 731 8570 8571 732 
732 8571 8572 733 733 8572 8573 734 734 
8573 457 6 207 208 8574 8535 8535 8574 
8575 8536 8536 8575 8576 8537 8537 8576 8577 
8538 8538 8577 8578 8539 8539 8578 8579 8540 
8540 8579 8580 8541 8541 8580 8581 8542 8542 
8581 8582 8543 8543 8582 8583 8544 8544 8583 
8584 8545 8545 8584 8585 8546 8546 8585 8586 
8547 8547 8586 8587 8548 8548 8587 8588 8549 
8549 8588 8589 8550 8550 8589 8590 8551 8551 
8590 8591 8552 8552 8591 8592 8553 8553 8592 
8593 8554 8554 8593 8594 8555 8555 8594 8595 
8556 8556 8595 8596 8557 8557 8596 8597 8558 
8558 8597 8598 8559 8559 8598 8599 8560 8560 
8599 8600 8561 8561 8600 8601 8562 8562 8601 
8602 8563 8563 8602 8603 8564 8564 8603 8604 
8565 8565 8604 8605 8566 8566 8605 8606 8567 
8567 8606 8607 8568 8568 8607 8608 8569 8569 
8608 8609 8570 8570 8609 8610 8571 8571 8610 
8611 8572 8572 8611 8612 8573 8573 8612 456 
457 208 209 8613 8574 8574 8613 8614 8575 
8575 8614 8615 8576 8576 8615 8616 8577 8577 
8616 8617 8578 8578 8617 8618 8579 8579 8618 
8619 8580 8580 8619 8620 8581 8581 8620 8621 
8582 8582 8621 8622 8583 8583 8622 8623 8584 
8584 8623 8624 8585 8585 8624 8625 8586 8586 
8625 8626 8587 8587 8626 8627 8588 8588 8627 
8628 8589 8589 8628 8629 8590 8590 8629 8630 
8591 8591 8630 8631 8592 8592 8631 8632 8593 
8593 8632 8633 8594 8594 8633 8634 8595 8595 
8634 8635 8596 8596 8635 8636 8597 8597 8636 
8637 8598 8598 8637 8638 8599 8599 8638 8639 
8600 8600 8639 8640 8601 8601 8640 8641 8602 
8602 8641 8642 8603 8603 8642 8643 8604 8604 
8643 8644 8605 8605 8644 8645 8606 8606 8645 
8646 8607 8607 8646 8647 8608 8608 8647 8648 
8609 8609 8648 8649 8610 8610 8649 8650 8611 
8611 8650 8651 8612 8612 8651 455 456 209 
210 8652 8613 8613 8652 8653 8614 8614 8653 
8654 8615 8615 8654 8655 8616 8616 8655 8656 
8617 8617 8656 8657 8618 8618 8657 8658 8619 
8619 8658 8659 8620 8620 8659 8660 8621 8621 
8660 8661 8622 8622 8661 8662 8623 8623 8662 
8663 8624 8624 8663 8664 8625 8625 8664 8665 
8626 8626 8665 8666 8627 8627 8666 8667 8628 
8628 8667 8668 8629 8629 8668 8669 8630 8630 
8669 8670 8631 8631 8670 8671 8632 8632 8671 
8672 8633 8633 8672 8673 8634 8634 8673 8674 
8635 8635 8674 8675 8636 8636 8675 8676 8637 
8637 8676 8677 8638 8638 8677 8678 8639 8639 
8678 8679 8640 8640 8679 8680 8641 8641 8680 
8681 8642 8642 8681 8682 8643 8643 8682 8683 
8644 8644 8683 8684 8645 8645 8684 8685 8646 
8646 8685 8686 8647 8647 8686 8687 8648 8648 
8687 8688 8649 8649 8688 8689 8650 8650 8689 
8690 8651 8651 8690 454 455 210 211 8691 
8652 8652 8691 8692 8653 8653 8692 8693 8654 
8654 8693 8694 8655 8655 8694 8695 8656 8656 
8695 8696 8657 8657 8696 8697 8658 8658 8697 
8698 8659 8659 8698 8699 8660 8660 8699 8700 
8661 8661 8700 8701 8662 8662 8701 8702 8663 
8663 8702 8703 8664 8664 8703 8704 8665 8665 
8704 8705 8666 8666 8705 8706 8667 8667 8706 
8707 8668 8668 8707 8708 8669 8669 8708 8709 
8670 8670 8709 8710 8671 8671 8710 8711 8672 
8672 8711 8712 8673 8673 8712 8713 8674 8674 
8713 8714 8675 8675 8714 8715 8676 8676 8715 
8716 8677 8677 8716 8717 8678 8678 8717 8718 
8679 8679 8718 8719 8680 8680 8719 8720 8681 
8681 8720 8721 8682 8682 8721 8722 8683 8683 
8722 8723 8684 8684 8723 8724 8685 8685 8724 
8725 8686 8686 8725 8726 8687 8687 8726 8727 
8688 8688 8727 8728 8689 8689 8728 8729 8690 
8690 8729 453 454 211 212 8730 8691 8691 
8730 8731 8692 8692 8731 8732 8693 8693 8732 
8733 8694 8694 8733 8734 8695 8695 8734 8735 
8696 8696 8735 8736 8697 8697 8736 8737 8698 
8698 8737 8738 8699 8699 8738 8739 8700 8700 
8739 8740 8701 8701 8740 8741 8702 8702 8741 
8742 8703 8703 8742 8743 8704 8704 8743 8744 
8705 8705 8744 8745 8706 8706 8745 8746 8707 
8707 8746 8747 8708 8708 8747 8748 8709 8709 
8748 8749 8710 8710 8749 8750 8711 8711 8750 
8751 8712 8712 8751 8752 8713 8713 8752 8753 
8714 8714 8753 8754 8715 8715 8754 8755 8716 
8716 8755 8756 8717 8717 8756 8757 8718 8718 
8757 8758 8719 8719 8758 8759 8720 8720 8759 
8760 8721 8721 8760 8761 8722 8722 8761 8762 
8723 8723 8762 8763 8724 8724 8763 8764 8725 
8725 8764 8765 8726 8726 8765 8766 8727 8727 
8766 8767 8728 8728 8767 8768 8729 8729 8768 
452 453 212 213 8769 8730 8730 8769 8770 
8731 8731 8770 8771 8732 8732 8771 8772 8733 
8733 8772 8773 8734 8734 8773 8774 8735 8735 
8774 8775 8736 8736 8775 8776 8737 8737 8776 
8777 8738 8738 8777 8778 8739 8739 8778 8779 
8740 8740 8779 8780 8741 8741 8780 8781 8742 
8742 8781 8782 8743 8743 8782 8783 8744 8744 
8783 8784 8745 8745 8784 8785 8746 8746 8785 
8786 8747 8747 8786 8787 8748 8748 8787 8788 
8749 8749 8788 8789 8750 8750 8789 8790 8751 
8751 8790 8791 8752 8752 8791 8792 8753 8753 
8792 8793 8754 8754 8793 8794 8755 8755 8794 
8795 8756 8756 8795 8796 8757 8757 8796 8797 
8758 8758 8797 8798 8759 8759 8798 8799 8760 
8760 8799 8800 8761 8761 8800 8801 8762 8762 
8801 8802 8763 8763 8802 8803 8764 8764 8803 
8804 8765 8765 8804 8805 8766 8766 8805 8806 
8767 8767 8806 8807 8768 8768 8807 451 452 
213 2 773 8769 8769 773 772 8770 8770 
772 771 8771 8771 771 770 8772 8772 770 
769 8773 8773 769 768 8774 8774 768 767 
8775 8775 767 766 8776 8776 766 765 8777 
8777 765 764 8778 8778 764 763 8779 8779 
763 762 8780 8780 762 761 8781 8781 761 
760 8782 8782 760 759 8783 8783 759 758 
8784 8784 758 757 8785 8785 757 756 8786 
8786 756 755 8787 8787 755 754 8788 8788 
754 753 8789 8789 753 752 8790 8790 752 
751 8791 8791 751 750 8792 8792 750 749 
8793 8793 749 748 8794 8794 748 747 8795 
8795 747 746 8796 8796 746 745 8797 8797 
745 744 8798 8798 744 743 8799 8799 743 
742 8800 8800 742 741 8801 8801 741 740 
8802 8802 740 739 8803 8803 739 738 8804 
8804 738 737 8805 8805 737 736 8806 8806 
736 735 8807 8807 735 5 451 2 214 
8808 773 773 8808 8809 772 772 8809 8810 
771 771 8810 8811 770 770 8811 8812 769 
769 8812 8813 768 768 8813 8814 767 767 
8814 8815 766 766 8815 8816 765 765 8816 
8817 764 764 8817 8818 763 763 8818 8819 
762 762 8819 8820 761 761 8820 8821 760 
760 8821 8822 759 759 8822 8823 758 758 
8823 8824 757 757 8824 8825 756 756 8825 
8826 755 755 8826 8827 754 754 8827 8828 
753 753 8828 8829 752 752 8829 8830 751 
751 8830 8831 750 750 8831 8832 749 749 
8832 8833 748 748 8833 8834 747 747 8834 
8835 746 746 8835 8836 745 745 8836 8837 
744 744 8837 8838 743 743 8838 8839 742 
742 8839 8840 741 741 8840 8841 740 740 
8841 8842 739 739 8842 8843 738 738 8843 
8844 737 737 8844 8845 736 736 8845 8846 
735 735 8846 450 5 214 215 8847 8808 
8808 8847 8848 8809 8809 8848 8849 8810 8810 
8849 8850 8811 8811 8850 8851 8812 8812 8851 
8852 8813 8813 8852 8853 8814 8814 8853 8854 
8815 8815 8854 8855 8816 8816 8855 8856 8817 
8817 8856 8857 8818 8818 8857 8858 8819 8819 
8858 8859 8820 8820 8859 8860 8821 8821 8860 
8861 8822 8822 8861 8862 8823 8823 8862 8863 
8824 8824 8863 8864 8825 8825 8864 8865 8826 
8826 8865 8866 8827 8827 8866 8867 8828 8828 
8867 8868 8829 8829 8868 8869 8830 8830 8869 
8870 8831 8831 8870 8871 8832 8832 8871 8872 
8833 8833 8872 8873 8834 8834 8873 8874 8835 
8835 8874 8875 8836 8836 8875 8876 8837 8837 
8876 8877 8838 8838 8877 8878 8839 8839 8878 
8879 8840 8840 8879 8880 8841 8841 8880 8881 
8842 8842 8881 8882 8843 8843 8882 8883 8844 
8844 8883 8884 8845 8845 8884 8885 8846 8846 
8885 449 450 215 216 8886 8847 8847 8886 
8887 8848 8848 8887 8888 8849 8849 8888 8889 
8850 8850 8889 8890 8851 8851 8890 8891 8852 
8852 8891 8892 8853 8853 8892 8893 8854 8854 
8893 8894 8855 8855 8894 8895 8856 8856 8895 
8896 8857 8857 8896 8897 8858 8858 8897 8898 
8859 8859 8898 8899 8860 8860 8899 8900 8861 
8861 8900 8901 8862 8862 8901 8902 8863 8863 
8902 8903 8864 8864 8903 8904 8865 8865 8904 
8905 8866 8866 8905 8906 8867 8867 8906 8907 
8868 8868 8907 8908 8869 8869 8908 8909 8870 
8870 8909 8910 8871 8871 8910 8911 8872 8872 
8911 8912 8873 8873 8912 8913 8874 8874 8913 
8914 8875 8875 8914 8915 8876 8876 8915 8916 
8877 8877 8916 8917 8878 8878 8917 8918 8879 
8879 8918 8919 8880 8880 8919 8920 8881 8881 
8920 8921 8882 8882 8921 8922 8883 8883 8922 
8923 8884 8884 8923 8924 8885 8885 8924 448 
449 216 217 8925 8886 8886 8925 8926 8887 
8887 8926 8927 8888 8888 8927 8928 8889 8889 
8928 8929 8890 8890 8929 8930 8891 8891 8930 
8931 8892 8892 8931 8932 8893 8893 8932 8933 
8894 8894 8933 8934 8895 8895 8934 8935 8896 
8896 8935 8936 8897 8897 8936 8937 8898 8898 
8937 8938 8899 8899 8938 8939 8900 8900 8939 
8940 8901 8901 8940 8941 8902 8902 8941 8942 
8903 8903 8942 8943 8904 8904 8943 8944 8905 
8905 8944 8945 8906 8906 8945 8946 8907 8907 
8946 8947 8908 8908 8947 8948 8909 8909 8948 
8949 8910 8910 8949 8950 8911 8911 8950 8951 
8912 8912 8951 8952 8913 8913 8952 8953 8914 
8914 8953 8954 8915 8915 8954 8955 8916 8916 
8955 8956 8917 8917 8956 8957 8918 8918 8957 
8958 8919 8919 8958 8959 8920 8920 8959 8960 
8921 8921 8960 8961 8922 8922 8961 8962 8923 
8923 8962 8963 8924 8924 8963 447 448 217 
218 8964 8925 8925 8964 8965 8926 8926 8965 
8966 8927 8927 8966 8967 8928 8928 8967 8968 
8929 8929 8968 8969 8930 8930 8969 8970 8931 
8931 8970 8971 8932 8932 8971 8972 8933 8933 
8972 8973 8934 8934 8973 8974 8935 8935 8974 
8975 8936 8936 8975 8976 8937 8937 8976 8977 
8938 8938 8977 8978 8939 8939 8978 8979 8940 
8940 8979 8980 8941 8941 8980 8981 8942 8942 
8981 8982 8943 8943 8982 8983 8944 8944 8983 
8984 8945 8945 8984 8985 8946 8946 8985 8986 
8947 8947 8986 8987 8948 8948 8987 8988 8949 
8949 8988 8989 8950 8950 8989 8990 8951 8951 
8990 8991 8952 8952 8991 8992 8953 8953 8992 
8993 8954 8954 8993 8994 8955 8955 8994 8995 
8956 8956 8995 8996 8957 8957 8996 8997 8958 
8958 8997 8998 8959 8959 8998 8999 8960 8960 
8999 9000 8961 8961 9000 9001 8962 8962 9001 
9002 8963 8963 9002 446 447 218 219 9003 
8964 8964 9003 9004 8965 8965 9004 9005 8966 
8966 9005 9006 8967 8967 9006 9007 8968 8968 
9007 9008 8969 8969 9008 9009 8970 8970 9009 
9010 8971 8971 9010 9011 8972 8972 9011 9012 
8973 8973 9012 9013 8974 8974 9013 9014 8975 
8975 9014 9015 8976 8976 9015 9016 8977 8977 
9016 9017 8978 8978 9017 9018 8979 8979 9018 
9019 8980 8980 9019 9020 8981 8981 9020 9021 
8982 8982 9021 9022 8983 8983 9022 9023 8984 
8984 9023 9024 8985 8985 9024 9025 8986 8986 
9025 9026 8987 8987 9026 9027 8988 8988 9027 
9028 8989 8989 9028 9029 8990 8990 9029 9030 
8991 8991 9030 9031 8992 8992 9031 9032 8993 
8993 9032 9033 8994 8994 9033 9034 8995 8995 
9034 9035 8996 8996 9035 9036 8997 8997 9036 
9037 8998 8998 9037 9038 8999 8999 9038 9039 
9000 9000 9039 9040 9001 9001 9040 9041 9002 
9002 9041 445 446 219 220 9042 9003 9003 
9042 9043 9004 9004 9043 9044 9005 9005 9044 
9045 9006 9006 9045 9046 9007 9007 9046 9047 
9008 9008 9047 9048 9009 9009 9048 9049 9010 
9010 9049 9050 9011 9011 9050 9051 9012 9012 
9051 9052 9013 9013 9052 9053 9014 9014 9053 
9054 9015 9015 9054 9055 9016 9016 9055 9056 
9017 9017 9056 9057 9018 9018 9057 9058 9019 
9019 9058 9059 9020 9020 9059 9060 9021 9021 
9060 9061 9022 9022 9061 9062 9023 9023 9062 
9063 9024 9024 9063 9064 9025 9025 9064 9065 
9026 9026 9065 9066 9027 9027 9066 9067 9028 
9028 9067 9068 9029 9029 9068 9069 9030 9030 
9069 9070 9031 9031 9070 9071 9032 9032 9071 
9072 9033 9033 9072 9073 9034 9034 9073 9074 
9035 9035 9074 9075 9036 9036 9075 9076 9037 
9037 9076 9077 9038 9038 9077 9078 9039 9039 
9078 9079 9040 9040 9079 9080 9041 9041 9080 
444 445 220 221 9081 9042 9042 9081 9082 
9043 9043 9082 9083 9044 9044 9083 9084 9045 
9045 9084 9085 9046 9046 9085 9086 9047 9047 
9086 9087 9048 9048 9087 9088 9049 9049 9088 
9089 9050 9050 9089 9090 9051 9051 9090 9091 
9052 9052 9091 9092 9053 9053 9092 9093 9054 
9054 9093 9094 9055 9055 9094 9095 9056 9056 
9095 9096 9057 9057 9096 9097 9058 9058 9097 
9098 9059 9059 9098 9099 9060 9060 9099 9100 
9061 9061 9100 9101 9062 9062 9101 9102 9063 
9063 9102 9103 9064 9064 9103 9104 9065 9065 
9104 9105 9066 9066 9105 9106 9067 9067 9106 
9107 9068 9068 9107 9108 9069 9069 9108 9109 
9070 9070 9109 9110 9071 9071 9110 9111 9072 
9072 9111 9112 9073 9073 9112 9113 9074 9074 
9113 9114 9075 9075 9114 9115 9076 9076 9115 
9116 9077 9077 9116 9117 9078 9078 9117 9118 
9079 9079 9118 9119 9080 9080 9119 443 444 
221 222 9120 9081 9081 9120 9121 9082 9082 
9121 9122 9083 9083 9122 9123 9084 9084 9123 
9124 9085 9085 9124 9125 9086 9086 9125 9126 
9087 9087 9126 9127 9088 9088 9127 9128 9089 
9089 9128 9129 9090 9090 9129 9130 9091 9091 
9130 9131 9092 9092 9131 9132 9093 9093 9132 
9133 9094 9094 9133 9134 9095 9095 9134 9135 
9096 9096 9135 9136 9097 9097 9136 9137 9098 
9098 9137 9138 9099 9099 9138 9139 9100 9100 
9139 9140 9101 9101 9140 9141 9102 9102 9141 
9142 9103 9103 9142 9143 9104 9104 9143 9144 
9105 9105 9144 9145 9106 9106 9145 9146 9107 
9107 9146 9147 9108 9108 9147 9148 9109 9109 
9148 9149 9110 9110 9149 9150 9111 9111 9150 
9151 9112 9112 9151 9152 9113 9113 9152 9153 
9114 9114 9153 9154 9115 9115 9154 9155 9116 
9116 9155 9156 9117 9117 9156 9157 9118 9118 
9157 9158 9119 9119 9158 442 443 222 223 
9159 9120 9120 9159 9160 9121 9121 9160 9161 
9122 9122 9161 9162 9123 9123 9162 9163 9124 
9124 9163 9164 9125 9125 9164 9165 9126 9126 
9165 9166 9127 9127 9166 9167 9128 9128 9167 
9168 9129 9129 9168 9169 9130 9130 9169 9170 
9131 9131 9170 9171 9132 9132 9171 9172 9133 
9133 9172 9173 9134 9134 9173 9174 9135 9135 
9174 9175 9136 9136 9175 9176 9137 9137 9176 
9177 9138 9138 9177 9178 9139 9139 9178 9179 
9140 9140 9179 9180 9141 9141 9180 9181 9142 
9142 9181 9182 9143 9143 9182 9183 9144 9144 
9183 9184 9145 9145 9184 9185 9146 9146 9185 
9186 9147 9147 9186 9187 9148 9148 9187 9188 
9149 9149 9188 9189 9150 9150 9189 9190 9151 
9151 9190 9191 9152 9152 9191 9192 9153 9153 
9192 9193 9154 9154 9193 9194 9155 9155 9194 
9195 9156 9156 9195 9196 9157 9157 9196 9197 
9158 9158 9197 441 442 223 224 9198 9159 
9159 9198 9199 9160 9160 9199 9200 9161 9161 
9200 9201 9162 9162 9201 9202 9163 9163 9202 
9203 9164 9164 9203 9204 9165 9165 9204 9205 
9166 9166 9205 9206 9167 9167 9206 9207 9168 
9168 9207 9208 9169 9169 9208 9209 9170 9170 
9209 9210 9171 9171 9210 9211 9172 9172 9211 
9212 9173 9173 9212 9213 9174 9174 9213 9214 
9175 9175 9214 9215 9176 9176 9215 9216 9177 
9177 9216 9217 9178 9178 9217 9218 9179 9179 
9218 9219 9180 9180 9219 9220 9181 9181 9220 
9221 9182 9182 9221 9222 9183 9183 9222 9223 
9184 9184 9223 9224 9185 9185 9224 9225 9186 
9186 9225 9226 9187 9187 9226 9227 9188 9188 
9227 9228 9189 9189 9228 9229 9190 9190 9229 
9230 9191 9191 9230 9231 9192 9192 9231 9232 
9193 9193 9232 9233 9194 9194 9233 9234 9195 
9195 9234 9235 9196 9196 9235 9236 9197 9197 
9236 440 441 224 225 9237 9198 9198 9237 
9238 9199 9199 9238 9239 9200 9200 9239 9240 
9201 9201 9240 9241 9202 9202 9241 9242 9203 
9203 9242 9243 9204 9204 9243 9244 9205 9205 
9244 9245 9206 9206 9245 9246 9207 9207 9246 
9247 9208 9208 9247 9248 9209 9209 9248 9249 
9210 9210 9249 9250 9211 9211 9250 9251 9212 
9212 9251 9252 9213 9213 9252 9253 9214 9214 
9253 9254 9215 9215 9254 9255 9216 9216 9255 
9256 9217 9217 9256 9257 9218 9218 9257 9258 
9219 9219 9258 9259 9220 9220 9259 9260 9221 
9221 9260 9261 9222 9222 9261 9262 9223 9223 
9262 9263 9224 9224 9263 9264 9225 9225 9264 
9265 9226 9226 9265 9266 9227 9227 9266 9267 
9228 9228 9267 9268 9229 9229 9268 9269 9230 
9230 9269 9270 9231 9231 9270 9271 9232 9232 
9271 9272 9233 9233 9272 9273 9234 9234 9273 
9274 9235 9235 9274 9275 9236 9236 9275 439 
440 225 226 9276 9237 9237 9276 9277 9238 
9238 9277 9278 9239 9239 9278 9279 9240 9240 
9279 9280 9241 9241 9280 9281 9242 9242 9281 
9282 9243 9243 9282 9283 9244 9244 9283 9284 
9245 9245 9284 9285 9246 9246 9285 9286 9247 
9247 9286 9287 9248 9248 9287 9288 9249 9249 
9288 9289 9250 9250 9289 9290 9251 9251 9290 
9291 9252 9252 9291 9292 9253 9253 9292 9293 
9254 9254 9293 9294 9255 9255 9294 9295 9256 
9256 9295 9296 9257 9257 9296 9297 9258 9258 
9297 9298 9259 9259 9298 9299 9260 9260 9299 
9300 9261 9261 9300 9301 9262 9262 9301 9302 
9263 9263 9302 9303 9264 9264 9303 9304 9265 
9265 9304 9305 9266 9266 9305 9306 9267 9267 
9306 9307 9268 9268 9307 9308 9269 9269 9308 
9309 9270 9270 9309 9310 9271 9271 9310 9311 
9272 9272 9311 9312 9273 9273 9312 9313 9274 
9274 9313 9314 9275 9275 9314 438 439 226 
227 9315 9276 9276 9315 9316 9277 9277 9316 
9317 9278 9278 9317 9318 9279 9279 9318 9319 
9280 9280 9319 9320 9281 9281 9320 9321 9282 
9282 9321 9322 9283 9283 9322 9323 9284 9284 
9323 9324 9285 9285 9324 9325 9286 9286 9325 
9326 9287 9287 9326 9327 9288 9288 9327 9328 
9289 9289 9328 9329 9290 9290 9329 9330 9291 
9291 9330 9331 9292 9292 9331 9332 9293 9293 
9332 9333 9294 9294 9333 9334 9295 9295 9334 
9335 9296 9296 9335 9336 9297 9297 9336 9337 
9298 9298 9337 9338 9299 9299 9338 9339 9300 
9300 9339 9340 9301 9301 9340 9341 9302 9302 
9341 9342 9303 9303 9342 9343 9304 9304 9343 
9344 9305 9305 9344 9345 9306 9306 9345 9346 
9307 9307 9346 9347 9308 9308 9347 9348 9309 
9309 9348 9349 9310 9310 9349 9350 9311 9311 
9350 9351 9312 9312 9351 9352 9313 9313 9352 
9353 9314 9314 9353 437 438 227 228 9354 
9315 9315 9354 9355 9316 9316 9355 9356 9317 
9317 9356 9357 9318 9318 9357 9358 9319 9319 
9358 9359 9320 9320 9359 9360 9321 9321 9360 
9361 9322 9322 9361 9362 9323 9323 9362 9363 
9324 9324 9363 9364 9325 9325 9364 9365 9326 
9326 9365 9366 9327 9327 9366 9367 9328 9328 
9367 9368 9329 9329 9368 9369 9330 9330 9369 
9370 9331 9331 9370 9371 9332 9332 9371 9372 
9333 9333 9372 9373 9334 9334 9373 9374 9335 
9335 9374 9375 9336 9336 9375 9376 9337 9337 
9376 9377 9338 9338 9377 9378 9339 9339 9378 
9379 9340 9340 9379 9380 9341 9341 9380 9381 
9342 9342 9381 9382 9343 9343 9382 9383 9344 
9344 9383 9384 9345 9345 9384 9385 9346 9346 
9385 9386 9347 9347 9386 9387 9348 9348 9387 
9388 9349 9349 9388 9389 9350 9350 9389 9390 
9351 9351 9390 9391 9352 9352 9391 9392 9353 
9353 9392 436 437 228 229 9393 9354 9354 
9393 9394 9355 9355 9394 9395 9356 9356 9395 
9396 9357 9357 9396 9397 9358 9358 9397 9398 
9359 9359 9398 9399 9360 9360 9399 9400 9361 
9361 9400 9401 9362 9362 9401 9402 9363 9363 
9402 9403 9364 9364 9403 9404 9365 9365 9404 
9405 9366 9366 9405 9406 9367 9367 9406 9407 
9368 9368 9407 9408 9369 9369 9408 9409 9370 
9370 9409 9410 9371 9371 9410 9411 9372 9372 
9411 9412 9373 9373 9412 9413 9374 9374 9413 
9414 9375 9375 9414 9415 9376 9376 9415 9416 
9377 9377 9416 9417 9378 9378 9417 9418 9379 
9379 9418 9419 9380 9380 9419 9420 9381 9381 
9420 9421 9382 9382 9421 9422 9383 9383 9422 
9423 9384 9384 9423 9424 9385 9385 9424 9425 
9386 9386 9425 9426 9387 9387 9426 9427 9388 
9388 9427 9428 9389 9389 9428 9429 9390 9390 
9429 9430 9391 9391 9430 9431 9392 9392 9431 
435 436 229 230 9432 9393 9393 9432 9433 
9394 9394 9433 9434 9395 9395 9434 9435 9396 
9396 9435 9436 9397 9397 9436 9437 9398 9398 
9437 9438 9399 9399 9438 9439 9400 9400 9439 
9440 9401 9401 9440 9441 9402 9402 9441 9442 
9403 9403 9442 9443 9404 9404 9443 9444 9405 
9405 9444 9445 9406 9406 9445 9446 9407 9407 
9446 9447 9408 9408 9447 9448 9409 9409 9448 
9449 9410 9410 9449 9450 9411 9411 9450 9451 
9412 9412 9451 9452 9413 9413 9452 9453 9414 
9414 9453 9454 9415 9415 9454 9455 9416 9416 
9455 9456 9417 9417 9456 9457 9418 9418 9457 
9458 9419 9419 9458 9459 9420 9420 9459 9460 
9421 9421 9460 9461 9422 9422 9461 9462 9423 
9423 9462 9463 9424 9424 9463 9464 9425 9425 
9464 9465 9426 9426 9465 9466 9427 9427 9466 
9467 9428 9428 9467 9468 9429 9429 9468 9469 
9430 9430 9469 9470 9431 9431 9470 434 435 
230 231 9471 9432 9432 9471 9472 9433 9433 
9472 9473 9434 9434 9473 9474 9435 9435 9474 
9475 9436 9436 9475 9476 9437 9437 9476 9477 
9438 9438 9477 9478 9439 9439 9478 9479 9440 
9440 9479 9480 9441 9441 9480 9481 9442 9442 
9481 9482 9443 9443 9482 9483 9444 9444 9483 
9484 9445 9445 9484 9485 9446 9446 9485 9486 
9447 9447 9486 9487 9448 9448 9487 9488 9449 
9449 9488 9489 9450 9450 9489 9490 9451 9451 
9490 9491 9452 9452 9491 9492 9453 9453 9492 
9493 9454 9454 9493 9494 9455 9455 9494 9495 
9456 9456 9495 9496 9457 9457 9496 9497 9458 
9458 9497 9498 9459 9459 9498 9499 9460 9460 
9499 9500 9461 9461 9500 9501 9462 9462 9501 
9502 9463 9463 9502 9503 9464 9464 9503 9504 
9465 9465 9504 9505 9466 9466 9505 9506 9467 
9467 9506 9507 9468 9468 9507 9508 9469 9469 
9508 9509 9470 9470 9509 433 434 231 232 
9510 9471 9471 9510 9511 9472 9472 9511 9512 
9473 9473 9512 9513 9474 9474 9513 9514 9475 
9475 9514 9515 9476 9476 9515 9516 9477 9477 
9516 9517 9478 9478 9517 9518 9479 9479 9518 
9519 9480 9480 9519 9520 9481 9481 9520 9521 
9482 9482 9521 9522 9483 9483 9522 9523 9484 
9484 9523 9524 9485 9485 9524 9525 9486 9486 
9525 9526 9487 9487 9526 9527 9488 9488 9527 
9528 9489 9489 9528 9529 9490 9490 9529 9530 
9491 9491 9530 9531 9492 9492 9531 9532 9493 
9493 9532 9533 9494 9494 9533 9534 9495 9495 
9534 9535 9496 9496 9535 9536 9497 9497 9536 
9537 9498 9498 9537 9538 9499 9499 9538 9539 
9500 9500 9539 9540 9501 9501 9540 9541 9502 
9502 9541 9542 9503 9503 9542 9543 9504 9504 
9543 9544 9505 9505 9544 9545 9506 9506 9545 
9546 9507 9507 9546 9547 9508 9508 9547 9548 
9509 9509 9548 432 433 232 233 9549 9510 
9510 9549 9550 9511 9511 9550 9551 9512 9512 
9551 9552 9513 9513 9552 9553 9514 9514 9553 
9554 9515 9515 9554 9555 9516 9516 9555 9556 
9517 9517 9556 9557 9518 9518 9557 9558 9519 
9519 9558 9559 9520 9520 9559 9560 9521 9521 
9560 9561 9522 9522 9561 9562 9523 9523 9562 
9563 9524 9524 9563 9564 9525 9525 9564 9565 
9526 9526 9565 9566 9527 9527 9566 9567 9528 
9528 9567 9568 9529 9529 9568 9569 9530 9530 
9569 9570 9531 9531 9570 9571 9532 9532 9571 
9572 9533 9533 9572 9573 9534 9534 9573 9574 
9535 9535 9574 9575 9536 9536 9575 9576 9537 
9537 9576 9577 9538 9538 9577 9578 9539 9539 
9578 9579 9540 9540 9579 9580 9541 9541 9580 
9581 9542 9542 9581 9582 9543 9543 9582 9583 
9544 9544 9583 9584 9545 9545 9584 9585 9546 
9546 9585 9586 9547 9547 9586 9587 9548 9548 
9587 431 432 233 234 9588 9549 9549 9588 
9589 9550 9550 9589 9590 9551 9551 9590 9591 
9552 9552 9591 9592 9553 9553 9592 9593 9554 
9554 9593 9594 9555 9555 9594 9595 9556 9556 
9595 9596 9557 9557 9596 9597 9558 9558 9597 
9598 9559 9559 9598 9599 9560 9560 9599 9600 
9561 9561 9600 9601 9562 9562 9601 9602 9563 
9563 9602 9603 9564 9564 9603 9604 9565 9565 
9604 9605 9566 9566 9605 9606 9567 9567 9606 
9607 9568 9568 9607 9608 9569 9569 9608 9609 
9570 9570 9609 9610 9571 9571 9610 9611 9572 
9572 9611 9612 9573 9573 9612 9613 9574 9574 
9613 9614 9575 9575 9614 9615 9576 9576 9615 
9616 9577 9577 9616 9617 9578 9578 9617 9618 
9579 9579 9618 9619 9580 9580 9619 9620 9581 
9581 9620 9621 9582 9582 9621 9622 9583 9583 
9622 9623 9584 9584 9623 9624 9585 9585 9624 
9625 9586 9586 9625 9626 9587 9587 9626 430 
431 234 235 9627 9588 9588 9627 9628 9589 
9589 9628 9629 9590 9590 9629 9630 9591 9591 
9630 9631 9592 9592 9631 9632 9593 9593 9632 
9633 9594 9594 9633 9634 9595 9595 9634 9635 
9596 9596 9635 9636 9597 9597 9636 9637 9598 
9598 9637 9638 9599 9599 9638 9639 9600 9600 
9639 9640 9601 9601 9640 9641 9602 9602 9641 
9642 9603 9603 9642 9643 9604 9604 9643 9644 
9605 9605 9644 9645 9606 9606 9645 9646 9607 
9607 9646 9647 9608 9608 9647 9648 9609 9609 
9648 9649 9610 9610 9649 9650 9611 9611 9650 
9651 9612 9612 9651 9652 9613 9613 9652 9653 
9614 9614 9653 9654 9615 9615 9654 9655 9616 
9616 9655 9656 9617 9617 9656 9657 9618 9618 
9657 9658 9619 9619 9658 9659 9620 9620 9659 
9660 9621 9621 9660 9661 9622 9622 9661 9662 
9623 9623 9662 9663 9624 9624 9663 9664 9625 
9625 9664 9665 9626 9626 9665 429 430 235 
236 9666 9627 9627 9666 9667 9628 9628 9667 
9668 9629 9629 9668 9669 9630 9630 9669 9670 
9631 9631 9670 9671 9632 9632 9671 9672 9633 
9633 9672 9673 9634 9634 9673 9674 9635 9635 
9674 9675 9636 9636 9675 9676 9637 9637 9676 
9677 9638 9638 9677 9678 9639 9639 9678 9679 
9640 9640 9679 9680 9641 9641 9680 9681 9642 
9642 9681 9682 9643 9643 9682 9683 9644 9644 
9683 9684 9645 9645 9684 9685 9646 9646 9685 
9686 9647 9647 9686 9687 9648 9648 9687 9688 
9649 9649 9688 9689 9650 9650 9689 9690 9651 
9651 9690 9691 9652 9652 9691 9692 9653 9653 
9692 9693 9654 9654 9693 9694 9655 9655 9694 
9695 9656 9656 9695 9696 9657 9657 9696 9697 
9658 9658 9697 9698 9659 9659 9698 9699 9660 
9660 9699 9700 9661 9661 9700 9701 9662 9662 
9701 9702 9663 9663 9702 9703 9664 9664 9703 
9704 9665 9665 9704 428 429 236 237 9705 
9666 9666 9705 9706 9667 9667 9706 9707 9668 
9668 9707 9708 9669 9669 9708 9709 9670 9670 
9709 9710 9671 9671 9710 9711 9672 9672 9711 
9712 9673 9673 9712 9713 9674 9674 9713 9714 
9675 9675 9714 9715 9676 9676 9715 9716 9677 
9677 9716 9717 9678 9678 9717 9718 9679 9679 
9718 9719 9680 9680 9719 9720 9681 9681 9720 
9721 9682 9682 9721 9722 9683 9683 9722 9723 
9684 9684 9723 9724 9685 9685 9724 9725 9686 
9686 9725 9726 9687 9687 9726 9727 9688 9688 
9727 9728 9689 9689 9728 9729 9690 9690 9729 
9730 9691 9691 9730 9731 9692 9692 9731 9732 
9693 9693 9732 9733 9694 9694 9733 9734 9695 
9695 9734 9735 9696 9696 9735 9736 9697 9697 
9736 9737 9698 9698 9737 9738 9699 9699 9738 
9739 9700 9700 9739 9740 9701 9701 9740 9741 
9702 9702 9741 9742 9703 9703 9742 9743 9704 
9704 9743 427 428 237 238 9744 9705 9705 
9744 9745 9706 9706 9745 9746 9707 9707 9746 
9747 9708 9708 9747 9748 9709 9709 9748 9749 
9710 9710 9749 9750 9711 9711 9750 9751 9712 
9712 9751 9752 9713 9713 9752 9753 9714 9714 
9753 9754 9715 9715 9754 9755 9716 9716 9755 
9756 9717 9717 9756 9757 9718 9718 9757 9758 
9719 9719 9758 9759 9720 9720 9759 9760 9721 
9721 9760 9761 9722 9722 9761 9762 9723 9723 
9762 9763 9724 9724 9763 9764 9725 9725 9764 
9765 9726 9726 9765 9766 9727 9727 9766 9767 
9728 9728 9767 9768 9729 9729 9768 9769 9730 
9730 9769 9770 9731 9731 9770 9771 9732 9732 
9771 9772 9733 9733 9772 9773 9734 9734 9773 
9774 9735 9735 9774 9775 9736 9736 9775 9776 
9737 9737 9776 9777 9738 9738 9777 9778 9739 
9739 9778 9779 9740 9740 9779 9780 9741 9741 
9780 9781 9742 9742 9781 9782 9743 9743 9782 
426 427 238 239 9783 9744 9744 9783 9784 
9745 9745 9784 9785 9746 9746 9785 9786 9747 
9747 9786 9787 9748 9748 9787 9788 9749 9749 
9788 9789 9750 9750 9789 9790 9751 9751 9790 
9791 9752 9752 9791 9792 9753 9753 9792 9793 
9754 9754 9793 9794 9755 9755 9794 9795 9756 
9756 9795 9796 9757 9757 9796 9797 9758 9758 
9797 9798 9759 9759 9798 9799 9760 9760 9799 
9800 9761 9761 9800 9801 9762 9762 9801 9802 
9763 9763 9802 9803 9764 9764 9803 9804 9765 
9765 9804 9805 9766 9766 9805 9806 9767 9767 
9806 9807 9768 9768 9807 9808 9769 9769 9808 
9809 9770 9770 9809 9810 9771 9771 9810 9811 
9772 9772 9811 9812 9773 9773 9812 9813 9774 
9774 9813 9814 9775 9775 9814 9815 9776 9776 
9815 9816 9777 9777 9816 9817 9778 9778 9817 
9818 9779 9779 9818 9819 9780 9780 9819 9820 
9781 9781 9820 9821 9782 9782 9821 425 426 
239 240 9822 9783 9783 9822 9823 9784 9784 
9823 9824 9785 9785 9824 9825 9786 9786 9825 
9826 9787 9787 9826 9827 9788 9788 9827 9828 
9789 9789 9828 9829 9790 9790 9829 9830 9791 
9791 9830 9831 9792 9792 9831 9832 9793 9793 
9832 9833 9794 9794 9833 9834 9795 9795 9834 
9835 9796 9796 9835 9836 9797 9797 9836 9837 
9798 9798 9837 9838 9799 9799 9838 9839 9800 
9800 9839 9840 9801 9801 9840 9841 9802 9802 
9841 9842 9803 9803 9842 9843 9804 9804 9843 
9844 9805 9805 9844 9845 9806 9806 9845 9846 
9807 9807 9846 9847 9808 9808 9847 9848 9809 
9809 9848 9849 9810 9810 9849 9850 9811 9811 
9850 9851 9812 9812 9851 9852 9813 9813 9852 
9853 9814 9814 9853 9854 9815 9815 9854 9855 
9816 9816 9855 9856 9817 9817 9856 9857 9818 
9818 9857 9858 9819 9819 9858 9859 9820 9820 
9859 9860 9821 9821 9860 424 425 240 241 
9861 9822 9822 9861 9862 9823 9823 9862 9863 
9824 9824 9863 9864 9825 9825 9864 9865 9826 
9826 9865 9866 9827 9827 9866 9867 9828 9828 
9867 9868 9829 9829 9868 9869 9830 9830 9869 
9870 9831 9831 9870 9871 9832 9832 9871 9872 
9833 9833 9872 9873 9834 9834 9873 9874 9835 
9835 9874 9875 9836 9836 9875 9876 9837 9837 
9876 9877 9838 9838 9877 9878 9839 9839 9878 
9879 9840 9840 9879 9880 9841 9841 9880 9881 
9842 9842 9881 9882 9843 9843 9882 9883 9844 
9844 9883 9884 9845 9845 9884 9885 9846 9846 
9885 9886 9847 9847 9886 9887 9848 9848 9887 
9888 9849 9849 9888 9889 9850 9850 9889 9890 
9851 9851 9890 9891 9852 9852 9891 9892 9853 
9853 9892 9893 9854 9854 9893 9894 9855 9855 
9894 9895 9856 9856 9895 9896 9857 9857 9896 
9897 9858 9858 9897 9898 9859 9859 9898 9899 
9860 9860 9899 423 424 241 242 9900 9861 
9861 9900 9901 9862 9862 9901 9902 9863 9863 
9902 9903 9864 9864 9903 9904 9865 9865 9904 
9905 9866 9866 9905 9906 9867 9867 9906 9907 
9868 9868 9907 9908 9869 9869 9908 9909 9870 
9870 9909 9910 9871 9871 9910 9911 9872 9872 
9911 9912 9873 9873 9912 9913 9874 9874 9913 
9914 9875 9875 9914 9915 9876 9876 9915 9916 
9877 9877 9916 9917 9878 9878 9917 9918 9879 
9879 9918 9919 9880 9880 9919 9920 9881 9881 
9920 9921 9882 9882 9921 9922 9883 9883 9922 
9923 9884 9884 9923 9924 9885 9885 9924 9925 
9886 9886 9925 9926 9887 9887 9926 9927 9888 
9888 9927 9928 9889 9889 9928 9929 9890 9890 
9929 9930 9891 9891 9930 9931 9892 9892 9931 
9932 9893 9893 9932 9933 9894 9894 9933 9934 
9895 9895 9934 9935 9896 9896 9935 9936 9897 
9897 9936 9937 9898 9898 9937 9938 9899 9899 
9938 422 423 242 243 9939 9900 9900 9939 
9940 9901 9901 9940 9941 9902 9902 9941 9942 
9903 9903 9942 9943 9904 9904 9943 9944 9905 
9905 9944 9945 9906 9906 9945 9946 9907 9907 
9946 9947 9908 9908 9947 9948 9909 9909 9948 
9949 9910 9910 9949 9950 9911 9911 9950 9951 
9912 9912 9951 9952 9913 9913 9952 9953 9914 
9914 9953 9954 9915 9915 9954 9955 9916 9916 
9955 9956 9917 9917 9956 9957 9918 9918 9957 
9958 9919 9919 9958 9959 9920 9920 9959 9960 
9921 9921 9960 9961 9922 9922 9961 9962 9923 
9923 9962 9963 9924 9924 9963 9964 9925 9925 
9964 9965 9926 9926 9965 9966 9927 9927 9966 
9967 9928 9928 9967 9968 9929 9929 9968 9969 
9930 9930 9969 9970 9931 9931 9970 9971 9932 
9932 9971 9972 9933 9933 9972 9973 9934 9934 
9973 9974 9935 9935 9974 9975 9936 9936 9975 
9976 9937 9937 9976 9977 9938 9938 9977 421 
422 243 244 9978 9939 9939 9978 9979 9940 
9940 9979 9980 9941 9941 9980 9981 9942 9942 
9981 9982 9943 9943 9982 9983 9944 9944 9983 
9984 9945 9945 9984 9985 9946 9946 9985 9986 
9947 9947 9986 9987 9948 9948 9987 9988 9949 
9949 9988 9989 9950 9950 9989 9990 9951 9951 
9990 9991 9952 9952 9991 9992 9953 9953 9992 
9993 9954 9954 9993 9994 9955 9955 9994 9995 
9956 9956 9995 9996 9957 9957 9996 9997 9958 
9958 9997 9998 9959 9959 9998 9999 9960 9960 
9999 10000 9961 9961 10000 10001 9962 9962 10001 
10002 9963 9963 10002 10003 9964 9964 10003 10004 
9965 9965 10004 10005 9966 9966 10005 10006 9967 
9967 10006 10007 9968 9968 10007 10008 9969 9969 
10008 10009 9970 9970 10009 10010 9971 9971 10010 
10011 9972 9972 10011 10012 9973 9973 10012 10013 
9974 9974 10013 10014 9975 9975 10014 10015 9976 
9976 10015 10016 9977 9977 10016 420 421 244 
245 10017 9978 9978 10017 10018 9979 9979 10018 
10019 9980 9980 10019 10020 9981 9981 10020 10021 
9982 9982 10021 10022 9983 9983 10022 10023 9984 
9984 10023 10024 9985 9985 10024 10025 9986 9986 
10025 10026 9987 9987 10026 10027 9988 9988 10027 
10028 9989 9989 10028 10029 9990 9990 10029 10030 
9991 9991 10030 10031 9992 9992 10031 10032 9993 
9993 10032 10033 9994 9994 10033 10034 9995 9995 
10034 10035 9996 9996 10035 10036 9997 9997 10036 
10037 9998 9998 10037 10038 9999 9999 10038 10039 
10000 10000 10039 10040 10001 10001 10040 10041 10002 
10002 10041 10042 10003 10003 10042 10043 10004 10004 
10043 10044 10005 10005 10044 10045 10006 10006 10045 
10046 10007 10007 10046 10047 10008 10008 10047 10048 
10009 10009 10048 10049 10010 10010 10049 10050 10011 
10011 10050 10051 10012 10012 10051 10052 10013 10013 
10052 10053 10014 10014 10053 10054 10015 10015 10054 
10055 10016 10016 10055 419 420 245 246 10056 
10017 10017 10056 10057 10018 10018 10057 10058 10019 
10019 10058 10059 10020 10020 10059 10060 10021 10021 
10060 10061 10022 10022 10061 10062 10023 10023 10062 
10063 10024 10024 10063 10064 10025 10025 10064 10065 
10026 10026 10065 10066 10027 10027 10066 10067 10028 
10028 10067 10068 10029 10029 10068 10069 10030 10030 
10069 10070 10031 10031 10070 10071 10032 10032 10071 
10072 10033 10033 10072 10073 10034 10034 10073 10074 
10035 10035 10074 10075 10036 10036 10075 10076 10037 
10037 10076 10077 10038 10038 10077 10078 10039 10039 
10078 10079 10040 10040 10079 10080 10041 10041 10080 
10081 10042 10042 10081 10082 10043 10043 10082 10083 
10044 10044 10083 10084 10045 10045 10084 10085 10046 
10046 10085 10086 10047 10047 10086 10087 10048 10048 
10087 10088 10049 10049 10088 10089 10050 10050 10089 
10090 10051 10051 10090 10091 10052 10052 10091 10092 
10053 10053 10092 10093 10054 10054 10093 10094 10055 
10055 10094 418 419 246 247 10095 10056 10056 
10095 10096 10057 10057 10096 10097 10058 10058 10097 
10098 10059 10059 10098 10099 10060 10060 10099 10100 
10061 10061 10100 10101 10062 10062 10101 10102 10063 
10063 10102 10103 10064 10064 10103 10104 10065 10065 
10104 10105 10066 10066 10105 10106 10067 10067 10106 
10107 10068 10068 10107 10108 10069 10069 10108 10109 
10070 10070 10109 10110 10071 10071 10110 10111 10072 
10072 10111 10112 10073 10073 10112 10113 10074 10074 
10113 10114 10075 10075 10114 10115 10076 10076 10115 
10116 10077 10077 10116 10117 10078 10078 10117 10118 
10079 10079 10118 10119 10080 10080 10119 10120 10081 
10081 10120 10121 10082 10082 10121 10122 10083 10083 
10122 10123 10084 10084 10123 10124 10085 10085 10124 
10125 10086 10086 10125 10126 10087 10087 10126 10127 
10088 10088 10127 10128 10089 10089 10128 10129 10090 
10090 10129 10130 10091 10091 10130 10131 10092 10092 
10131 10132 10093 10093 10132 10133 10094 10094 10133 
417 418 247 248 10134 10095 10095 10134 10135 
10096 10096 10135 10136 10097 10097 10136 10137 10098 
10098 10137 10138 10099 10099 10138 10139 10100 10100 
10139 10140 10101 10101 10140 10141 10102 10102 10141 
10142 10103 10103 10142 10143 10104 10104 10143 10144 
10105 10105 10144 10145 10106 10106 10145 10146 10107 
10107 10146 10147 10108 10108 10147 10148 10109 10109 
10148 10149 10110 10110 10149 10150 10111 10111 10150 
10151 10112 10112 10151 10152 10113 10113 10152 10153 
10114 10114 10153 10154 10115 10115 10154 10155 10116 
10116 10155 10156 10117 10117 10156 10157 10118 10118 
10157 10158 10119 10119 10158 10159 10120 10120 10159 
10160 10121 10121 10160 10161 10122 10122 10161 10162 
10123 10123 10162 10163 10124 10124 10163 10164 10125 
10125 10164 10165 10126 10126 10165 10166 10127 10127 
10166 10167 10128 10128 10167 10168 10129 10129 10168 
10169 10130 10130 10169 10170 10131 10131 10170 10171 
10132 10132 10171 10172 10133 10133 10172 416 417 
248 249 10173 10134 10134 10173 10174 10135 10135 
10174 10175 10136 10136 10175 10176 10137 10137 10176 
10177 10138 10138 10177 10178 10139 10139 10178 10179 
10140 10140 10179 10180 10141 10141 10180 10181 10142 
10142 10181 10182 10143 10143 10182 10183 10144 10144 
10183 10184 10145 10145 10184 10185 10146 10146 10185 
10186 10147 10147 10186 10187 10148 10148 10187 10188 
10149 10149 10188 10189 10150 10150 10189 10190 10151 
10151 10190 10191 10152 10152 10191 10192 10153 10153 
10192 10193 10154 10154 10193 10194 10155 10155 10194 
10195 10156 10156 10195 10196 10157 10157 10196 10197 
10158 10158 10197 10198 10159 10159 10198 10199 10160 
10160 10199 10200 10161 10161 10200 10201 10162 10162 
10201 10202 10163 10163 10202 10203 10164 10164 10203 
10204 10165 10165 10204 10205 10166 10166 10205 10206 
10167 10167 10206 10207 10168 10168 10207 10208 10169 
10169 10208 10209 10170 10170 10209 10210 10171 10171 
10210 10211 10172 10172 10211 415 416 249 250 
10212 10173 10173 10212 10213 10174 10174 10213 10214 
10175 10175 10214 10215 10176 10176 10215 10216 10177 
10177 10216 10217 10178 10178 10217 10218 10179 10179 
10218 10219 10180 10180 10219 10220 10181 10181 10220 
10221 10182 10182 10221 10222 10183 10183 10222 10223 
10184 10184 10223 10224 10185 10185 10224 10225 10186 
10186 10225 10226 10187 10187 10226 10227 10188 10188 
10227 10228 10189 10189 10228 10229 10190 10190 10229 
10230 10191 10191 10230 10231 10192 10192 10231 10232 
10193 10193 10232 10233 10194 10194 10233 10234 10195 
10195 10234 10235 10196 10196 10235 10236 10197 10197 
10236 10237 10198 10198 10237 10238 10199 10199 10238 
10239 10200 10200 10239 10240 10201 10201 10240 10241 
10202 10202 10241 10242 10203 10203 10242 10243 10204 
10204 10243 10244 10205 10205 10244 10245 10206 10206 
10245 10246 10207 10207 10246 10247 10208 10208 10247 
10248 10209 10209 10248 10249 10210 10210 10249 10250 
10211 10211 10250 414 415 250 251 10251 10212 
10212 10251 10252 10213 10213 10252 10253 10214 10214 
10253 10254 10215 10215 10254 10255 10216 10216 10255 
10256 10217 10217 10256 10257 10218 10218 10257 10258 
10219 10219 10258 10259 10220 10220 10259 10260 10221 
10221 10260 10261 10222 10222 10261 10262 10223 10223 
10262 10263 10224 10224 10263 10264 10225 10225 10264 
10265 10226 10226 10265 10266 10227 10227 10266 10267 
10228 10228 10267 10268 10229 10229 10268 10269 10230 
10230 10269 10270 10231 10231 10270 10271 10232 10232 
10271 10272 10233 10233 10272 10273 10234 10234 10273 
10274 10235 10235 10274 10275 10236 10236 10275 10276 
10237 10237 10276 10277 10238 10238 10277 10278 10239 
10239 10278 10279 10240 10240 10279 10280 10241 10241 
10280 10281 10242 10242 10281 10282 10243 10243 10282 
10283 10244 10244 10283 10284 10245 10245 10284 10285 
10246 10246 10285 10286 10247 10247 10286 10287 10248 
10248 10287 10288 10249 10249 10288 10289 10250 10250 
10289 413 414 251 252 10290 10251 10251 10290 
10291 10252 10252 10291 10292 10253 10253 10292 10293 
10254 10254 10293 10294 10255 10255 10294 10295 10256 
10256 10295 10296 10257 10257 10296 10297 10258 10258 
10297 10298 10259 10259 10298 10299 10260 10260 10299 
10300 10261 10261 10300 10301 10262 10262 10301 10302 
10263 10263 10302 10303 10264 10264 10303 10304 10265 
10265 10304 10305 10266 10266 10305 10306 10267 10267 
10306 10307 10268 10268 10307 10308 10269 10269 10308 
10309 10270 10270 10309 10310 10271 10271 10310 10311 
10272 10272 10311 10312 10273 10273 10312 10313 10274 
10274 10313 10314 10275 10275 10314 10315 10276 10276 
10315 10316 10277 10277 10316 10317 10278 10278 10317 
10318 10279 10279 10318 10319 10280 10280 10319 10320 
10281 10281 10320 10321 10282 10282 10321 10322 10283 
10283 10322 10323 10284 10284 10323 10324 10285 10285 
10324 10325 10286 10286 10325 10326 10287 10287 10326 
10327 10288 10288 10327 10328 10289 10289 10328 412 
413 252 253 10329 10290 10290 10329 10330 10291 
10291 10330 10331 10292 10292 10331 10332 10293 10293 
10332 10333 10294 10294 10333 10334 10295 10295 10334 
10335 10296 10296 10335 10336 10297 10297 10336 10337 
10298 10298 10337 10338 10299 10299 10338 10339 10300 
10300 10339 10340 10301 10301 10340 10341 10302 10302 
10341 10342 10303 10303 10342 10343 10304 10304 10343 
10344 10305 10305 10344 10345 10306 10306 10345 10346 
10307 10307 10346 10347 10308 10308 10347 10348 10309 
10309 10348 10349 10310 10310 10349 10350 10311 10311 
10350 10351 10312 10312 10351 10352 10313 10313 10352 
10353 10314 10314 10353 10354 10315 10315 10354 10355 
10316 10316 10355 10356 10317 10317 10356 10357 10318 
10318 10357 10358 10319 10319 10358 10359 10320 10320 
10359 10360 10321 10321 10360 10361 10322 10322 10361 
10362 10323 10323 10362 10363 10324 10324 10363 10364 
10325 10325 10364 10365 10326 10326 10365 10366 10327 
10327 10366 10367 10328 10328 10367 411 412 253 
254 10368 10329 10329 10368 10369 10330 10330 10369 
10370 10331 10331 10370 10371 10332 10332 10371 10372 
10333 10333 10372 10373 10334 10334 10373 10374 10335 
10335 10374 10375 10336 10336 10375 10376 10337 10337 
10376 10377 10338 10338 10377 10378 10339 10339 10378 
10379 10340 10340 10379 10380 10341 10341 10380 10381 
10342 10342 10381 10382 10343 10343 10382 10383 10344 
10344 10383 10384 10345 10345 10384 10385 10346 10346 
10385 10386 10347 10347 10386 10387 10348 10348 10387 
10388 10349 10349 10388 10389 10350 10350 10389 10390 
10351 10351 10390 10391 10352 10352 10391 10392 10353 
10353 10392 10393 10354 10354 10393 10394 10355 10355 
10394 10395 10356 10356 10395 10396 10357 10357 10396 
10397 10358 10358 10397 10398 10359 10359 10398 10399 
10360 10360 10399 10400 10361 10361 10400 10401 10362 
10362 10401 10402 10363 10363 10402 10403 10364 10364 
10403 10404 10365 10365 10404 10405 10366 10366 10405 
10406 10367 10367 10406 410 411 254 255 10407 
10368 10368 10407 10408 10369 10369 10408 10409 10370 
10370 10409 10410 10371 10371 10410 10411 10372 10372 
10411 10412 10373 10373 10412 10413 10374 10374 10413 
10414 10375 10375 10414 10415 10376 10376 10415 10416 
10377 10377 10416 10417 10378 10378 10417 10418 10379 
10379 10418 10419 10380 10380 10419 10420 10381 10381 
10420 10421 10382 10382 10421 10422 10383 10383 10422 
10423 10384 10384 10423 10424 10385 10385 10424 10425 
10386 10386 10425 10426 10387 10387 10426 10427 10388 
10388 10427 10428 10389 10389 10428 10429 10390 10390 
10429 10430 10391 10391 10430 10431 10392 10392 10431 
10432 10393 10393 10432 10433 10394 10394 10433 10434 
10395 10395 10434 10435 10396 10396 10435 10436 10397 
10397 10436 10437 10398 10398 10437 10438 10399 10399 
10438 10439 10400 10400 10439 10440 10401 10401 10440 
10441 10402 10402 10441 10442 10403 10403 10442 10443 
10404 10404 10443 10444 10405 10405 10444 10445 10406 
10406 10445 409 410 255 256 10446 10407 10407 
10446 10447 10408 10408 10447 10448 10409 10409 10448 
10449 10410 10410 10449 10450 10411 10411 10450 10451 
10412 10412 10451 10452 10413 10413 10452 10453 10414 
10414 10453 10454 10415 10415 10454 10455 10416 10416 
10455 10456 10417 10417 10456 10457 10418 10418 10457 
10458 10419 10419 10458 10459 10420 10420 10459 10460 
10421 10421 10460 10461 10422 10422 10461 10462 10423 
10423 10462 10463 10424 10424 10463 10464 10425 10425 
10464 10465 10426 10426 10465 10466 10427 10427 10466 
10467 10428 10428 10467 10468 10429 10429 10468 10469 
10430 10430 10469 10470 10431 10431 10470 10471 10432 
10432 10471 10472 10433 10433 10472 10473 10434 10434 
10473 10474 10435 10435 10474 10475 10436 10436 10475 
10476 10437 10437 10476 10477 10438 10438 10477 10478 
10439 10439 10478 10479 10440 10440 10479 10480 10441 
10441 10480 10481 10442 10442 10481 10482 10443 10443 
10482 10483 10444 10444 10483 10484 10445 10445 10484 
408 409 256 257 10485 10446 10446 10485 10486 
10447 10447 10486 10487 10448 10448 10487 10488 10449 
10449 10488 10489 10450 10450 10489 10490 10451 10451 
10490 10491 10452 10452 10491 10492 10453 10453 10492 
10493 10454 10454 10493 10494 10455 10455 10494 10495 
10456 10456 10495 10496 10457 10457 10496 10497 10458 
10458 10497 10498 10459 10459 10498 10499 10460 10460 
10499 10500 10461 10461 10500 10501 10462 10462 10501 
10502 10463 10463 10502 10503 10464 10464 10503 10504 
10465 10465 10504 10505 10466 10466 10505 10506 10467 
10467 10506 10507 10468 10468 10507 10508 10469 10469 
10508 10509 10470 10470 10509 10510 10471 10471 10510 
10511 10472 10472 10511 10512 10473 10473 10512 10513 
10474 10474 10513 10514 10475 10475 10514 10515 10476 
10476 10515 10516 10477 10477 10516 10517 10478 10478 
10517 10518 10479 10479 10518 10519 10480 10480 10519 
10520 10481 10481 10520 10521 10482 10482 10521 10522 
10483 10483 10522 10523 10484 10484 10523 407 408 
257 258 10524 10485 10485 10524 10525 10486 10486 
10525 10526 10487 10487 10526 10527 10488 10488 10527 
10528 10489 10489 10528 10529 10490 10490 10529 10530 
10491 10491 10530 10531 10492 10492 10531 10532 10493 
10493 10532 10533 10494 10494 10533 10534 10495 10495 
10534 10535 10496 10496 10535 10536 10497 10497 10536 
10537 10498 10498 10537 10538 10499 10499 10538 10539 
10500 10500 10539 10540 10501 10501 10540 10541 10502 
10502 10541 10542 10503 10503 10542 10543 10504 10504 
10543 10544 10505 10505 10544 10545 10506 10506 10545 
10546 10507 10507 10546 10547 10508 10508 10547 10548 
10509 10509 10548 10549 10510 10510 10549 10550 10511 
10511 10550 10551 10512 10512 10551 10552 10513 10513 
10552 10553 10514 10514 10553 10554 10515 10515 10554 
10555 10516 10516 10555 10556 10517 10517 10556 10557 
10518 10518 10557 10558 10519 10519 10558 10559 10520 
10520 10559 10560 10521 10521 10560 10561 10522 10522 
10561 10562 10523 10523 10562 406 407 258 259 
10563 10524 10524 10563 10564 10525 10525 10564 10565 
10526 10526 10565 10566 10527 10527 10566 10567 10528 
10528 10567 10568 10529 10529 10568 10569 10530 10530 
10569 10570 10531 10531 10570 10571 10532 10532 10571 
10572 10533 10533 10572 10573 10534 10534 10573 10574 
10535 10535 10574 10575 10536 10536 10575 10576 10537 
10537 10576 10577 10538 10538 10577 10578 10539 10539 
10578 10579 10540 10540 10579 10580 10541 10541 10580 
10581 10542 10542 10581 10582 10543 10543 10582 10583 
10544 10544 10583 10584 10545 10545 10584 10585 10546 
10546 10585 10586 10547 10547 10586 10587 10548 10548 
10587 10588 10549 10549 10588 10589 10550 10550 10589 
10590 10551 10551 10590 10591 10552 10552 10591 10592 
10553 10553 10592 10593 10554 10554 10593 10594 10555 
10555 10594 10595 10556 10556 10595 10596 10557 10557 
10596 10597 10558 10558 10597 10598 10559 10559 10598 
10599 10560 10560 10599 10600 10561 10561 10600 10601 
10562 10562 10601 405 406 259 260 10602 10563 
10563 10602 10603 10564 10564 10603 10604 10565 10565 
10604 10605 10566 10566 10605 10606 10567 10567 10606 
10607 10568 10568 10607 10608 10569 10569 10608 10609 
10570 10570 10609 10610 10571 10571 10610 10611 10572 
10572 10611 10612 10573 10573 10612 10613 10574 10574 
10613 10614 10575 10575 10614 10615 10576 10576 10615 
10616 10577 10577 10616 10617 10578 10578 10617 10618 
10579 10579 10618 10619 10580 10580 10619 10620 10581 
10581 10620 10621 10582 10582 10621 10622 10583 10583 
10622 10623 10584 10584 10623 10624 10585 10585 10624 
10625 10586 10586 10625 10626 10587 10587 10626 10627 
10588 10588 10627 10628 10589 10589 10628 10629 10590 
10590 10629 10630 10591 10591 10630 10631 10592 10592 
10631 10632 10593 10593 10632 10633 10594 10594 10633 
10634 10595 10595 10634 10635 10596 10596 10635 10636 
10597 10597 10636 10637 10598 10598 10637 10638 10599 
10599 10638 10639 10600 10600 10639 10640 10601 10601 
10640 404 405 260 261 10641 10602 10602 10641 
10642 10603 10603 10642 10643 10604 10604 10643 10644 
10605 10605 10644 10645 10606 10606 10645 10646 10607 
10607 10646 10647 10608 10608 10647 10648 10609 10609 
10648 10649 10610 10610 10649 10650 10611 10611 10650 
10651 10612 10612 10651 10652 10613 10613 10652 10653 
10614 10614 10653 10654 10615 10615 10654 10655 10616 
10616 10655 10656 10617 10617 10656 10657 10618 10618 
10657 10658 10619 10619 10658 10659 10620 10620 10659 
10660 10621 10621 10660 10661 10622 10622 10661 10662 
10623 10623 10662 10663 10624 10624 10663 10664 10625 
10625 10664 10665 10626 10626 10665 10666 10627 10627 
10666 10667 10628 10628 10667 10668 10629 10629 10668 
10669 10630 10630 10669 10670 10631 10631 10670 10671 
10632 10632 10671 10672 10633 10633 10672 10673 10634 
10634 10673 10674 10635 10635 10674 10675 10636 10636 
10675 10676 10637 10637 10676 10677 10638 10638 10677 
10678 10639 10639 10678 10679 10640 10640 10679 403 
404 261 262 10680 10641 10641 10680 10681 10642 
10642 10681 10682 10643 10643 10682 10683 10644 10644 
10683 10684 10645 10645 10684 10685 10646 10646 10685 
10686 10647 10647 10686 10687 10648 10648 10687 10688 
10649 10649 10688 10689 10650 10650 10689 10690 10651 
10651 10690 10691 10652 10652 10691 10692 10653 10653 
10692 10693 10654 10654 10693 10694 10655 10655 10694 
10695 10656 10656 10695 10696 10657 10657 10696 10697 
10658 10658 10697 10698 10659 10659 10698 10699 10660 
10660 10699 10700 10661 10661 10700 10701 10662 10662 
10701 10702 10663 10663 10702 10703 10664 10664 10703 
10704 10665 10665 10704 10705 10666 10666 10705 10706 
10667 10667 10706 10707 10668 10668 10707 10708 10669 
10669 10708 10709 10670 10670 10709 10710 10671 10671 
10710 10711 10672 10672 10711 10712 10673 10673 10712 
10713 10674 10674 10713 10714 10675 10675 10714 10715 
10676 10676 10715 10716 10677 10677 10716 10717 10678 
10678 10717 10718 10679 10679 10718 402 403 262 
263 10719 10680 10680 10719 10720 10681 10681 10720 
10721 10682 10682 10721 10722 10683 10683 10722 10723 
10684 10684 10723 10724 10685 10685 10724 10725 10686 
10686 10725 10726 10687 10687 10726 10727 10688 10688 
10727 10728 10689 10689 10728 10729 10690 10690 10729 
10730 10691 10691 10730 10731 10692 10692 10731 10732 
10693 10693 10732 10733 10694 10694 10733 10734 10695 
10695 10734 10735 10696 10696 10735 10736 10697 10697 
10736 10737 10698 10698 10737 10738 10699 10699 10738 
10739 10700 10700 10739 10740 10701 10701 10740 10741 
10702 10702 10741 10742 10703 10703 10742 10743 10704 
10704 10743 10744 10705 10705 10744 10745 10706 10706 
10745 10746 10707 10707 10746 10747 10708 10708 10747 
10748 10709 10709 10748 10749 10710 10710 10749 10750 
10711 10711 10750 10751 10712 10712 10751 10752 10713 
10713 10752 10753 10714 10714 10753 10754 10715 10715 
10754 10755 10716 10716 10755 10756 10717 10717 10756 
10757 10718 10718 10757 401 402 263 264 10758 
10719 10719 10758 10759 10720 10720 10759 10760 10721 
10721 10760 10761 10722 10722 10761 10762 10723 10723 
10762 10763 10724 10724 10763 10764 10725 10725 10764 
10765 10726 10726 10765 10766 10727 10727 10766 10767 
10728 10728 10767 10768 10729 10729 10768 10769 10730 
10730 10769 10770 10731 10731 10770 10771 10732 10732 
10771 10772 10733 10733 10772 10773 10734 10734 10773 
10774 10735 10735 10774 10775 10736 10736 10775 10776 
10737 10737 10776 10777 10738 10738 10777 10778 10739 
10739 10778 10779 10740 10740 10779 10780 10741 10741 
10780 10781 10742 10742 10781 10782 10743 10743 10782 
10783 10744 10744 10783 10784 10745 10745 10784 10785 
10746 10746 10785 10786 10747 10747 10786 10787 10748 
10748 10787 10788 10749 10749 10788 10789 10750 10750 
10789 10790 10751 10751 10790 10791 10752 10752 10791 
10792 10753 10753 10792 10793 10754 10754 10793 10794 
10755 10755 10794 10795 10756 10756 10795 10796 10757 
10757 10796 400 401 264 265 10797 10758 10758 
10797 10798 10759 10759 10798 10799 10760 10760 10799 
10800 10761 10761 10800 10801 10762 10762 10801 10802 
10763 10763 10802 10803 10764 10764 10803 10804 10765 
10765 10804 10805 10766 10766 10805 10806 10767 10767 
10806 10807 10768 10768 10807 10808 10769 10769 10808 
10809 10770 10770 10809 10810 10771 10771 10810 10811 
10772 10772 10811 10812 10773 10773 10812 10813 10774 
10774 10813 10814 10775 10775 10814 10815 10776 10776 
10815 10816 10777 10777 10816 10817 10778 10778 10817 
10818 10779 10779 10818 10819 10780 10780 10819 10820 
10781 10781 10820 10821 10782 10782 10821 10822 10783 
10783 10822 10823 10784 10784 10823 10824 10785 10785 
10824 10825 10786 10786 10825 10826 10787 10787 10826 
10827 10788 10788 10827 10828 10789 10789 10828 10829 
10790 10790 10829 10830 10791 10791 10830 10831 10792 
10792 10831 10832 10793 10793 10832 10833 10794 10794 
10833 10834 10795 10795 10834 10835 10796 10796 10835 
399 400 265 266 10836 10797 10797 10836 10837 
10798 10798 10837 10838 10799 10799 10838 10839 10800 
10800 10839 10840 10801 10801 10840 10841 10802 10802 
10841 10842 10803 10803 10842 10843 10804 10804 10843 
10844 10805 10805 10844 10845 10806 10806 10845 10846 
10807 10807 10846 10847 10808 10808 10847 10848 10809 
10809 10848 10849 10810 10810 10849 10850 10811 10811 
10850 10851 10812 10812 10851 10852 10813 10813 10852 
10853 10814 10814 10853 10854 10815 10815 10854 10855 
10816 10816 10855 10856 10817 10817 10856 10857 10818 
10818 10857 10858 10819 10819 10858 10859 10820 10820 
10859 10860 10821 10821 10860 10861 10822 10822 10861 
10862 10823 10823 10862 10863 10824 10824 10863 10864 
10825 10825 10864 10865 10826 10826 10865 10866 10827 
10827 10866 10867 10828 10828 10867 10868 10829 10829 
10868 10869 10830 10830 10869 10870 10831 10831 10870 
10871 10832 10832 10871 10872 10833 10833 10872 10873 
10834 10834 10873 10874 10835 10835 10874 398 399 
266 267 10875 10836 10836 10875 10876 10837 10837 
10876 10877 10838 10838 10877 10878 10839 10839 10878 
10879 10840 10840 10879 10880 10841 10841 10880 10881 
10842 10842 10881 10882 10843 10843 10882 10883 10844 
10844 10883 10884 10845 10845 10884 10885 10846 10846 
10885 10886 10847 10847 10886 10887 10848 10848 10887 
10888 10849 10849 10888 10889 10850 10850 10889 10890 
10851 10851 10890 10891 10852 10852 10891 10892 10853 
10853 10892 10893 10854 10854 10893 10894 10855 10855 
10894 10895 10856 10856 10895 10896 10857 10857 10896 
10897 10858 10858 10897 10898 10859 10859 10898 10899 
10860 10860 10899 10900 10861 10861 10900 10901 10862 
10862 10901 10902 10863 10863 10902 10903 10864 10864 
10903 10904 10865 10865 10904 10905 10866 10866 10905 
10906 10867 10867 10906 10907 10868 10868 10907 10908 
10869 10869 10908 10909 10870 10870 10909 10910 10871 
10871 10910 10911 10872 10872 10911 10912 10873 10873 
10912 10913 10874 10874 10913 397 398 267 268 
10914 10875 10875 10914 10915 10876 10876 10915 10916 
10877 10877 10916 10917 10878 10878 10917 10918 10879 
10879 10918 10919 10880 10880 10919 10920 10881 10881 
10920 10921 10882 10882 10921 10922 10883 10883 10922 
10923 10884 10884 10923 10924 10885 10885 10924 10925 
10886 10886 10925 10926 10887 10887 10926 10927 10888 
10888 10927 10928 10889 10889 10928 10929 10890 10890 
10929 10930 10891 10891 10930 10931 10892 10892 10931 
10932 10893 10893 10932 10933 10894 10894 10933 10934 
10895 10895 10934 10935 10896 10896 10935 10936 10897 
10897 10936 10937 10898 10898 10937 10938 10899 10899 
10938 10939 10900 10900 10939 10940 10901 10901 10940 
10941 10902 10902 10941 10942 10903 10903 10942 10943 
10904 10904 10943 10944 10905 10905 10944 10945 10906 
10906 10945 10946 10907 10907 10946 10947 10908 10908 
10947 10948 10909 10909 10948 10949 10910 10910 10949 
10950 10911 10911 10950 10951 10912 10912 10951 10952 
10913 10913 10952 396 397 268 269 10953 10914 
10914 10953 10954 10915 10915 10954 10955 10916 10916 
10955 10956 10917 10917 10956 10957 10918 10918 10957 
10958 10919 10919 10958 10959 10920 10920 10959 10960 
10921 10921 10960 10961 10922 10922 10961 10962 10923 
10923 10962 10963 10924 10924 10963 10964 10925 10925 
10964 10965 10926 10926 10965 10966 10927 10927 10966 
10967 10928 10928 10967 10968 10929 10929 10968 10969 
10930 10930 10969 10970 10931 10931 10970 10971 10932 
10932 10971 10972 10933 10933 10972 10973 10934 10934 
10973 10974 10935 10935 10974 10975 10936 10936 10975 
10976 10937 10937 10976 10977 10938 10938 10977 10978 
10939 10939 10978 10979 10940 10940 10979 10980 10941 
10941 10980 10981 10942 10942 10981 10982 10943 10943 
10982 10983 10944 10944 10983 10984 10945 10945 10984 
10985 10946 10946 10985 10986 10947 10947 10986 10987 
10948 10948 10987 10988 10949 10949 10988 10989 10950 
10950 10989 10990 10951 10951 10990 10991 10952 10952 
10991 395 396 269 270 10992 10953 10953 10992 
10993 10954 10954 10993 10994 10955 10955 10994 10995 
10956 10956 10995 10996 10957 10957 10996 10997 10958 
10958 10997 10998 10959 10959 10998 10999 10960 10960 
10999 11000 10961 10961 11000 11001 10962 10962 11001 
11002 10963 10963 11002 11003 10964 10964 11003 11004 
10965 10965 11004 11005 10966 10966 11005 11006 10967 
10967 11006 11007 10968 10968 11007 11008 10969 10969 
11008 11009 10970 10970 11009 11010 10971 10971 11010 
11011 10972 10972 11011 11012 10973 10973 11012 11013 
10974 10974 11013 11014 10975 10975 11014 11015 10976 
10976 11015 11016 10977 10977 11016 11017 10978 10978 
11017 11018 10979 10979 11018 11019 10980 10980 11019 
11020 10981 10981 11020 11021 10982 10982 11021 11022 
10983 10983 11022 11023 10984 10984 11023 11024 10985 
10985 11024 11025 10986 10986 11025 11026 10987 10987 
11026 11027 10988 10988 11027 11028 10989 10989 11028 
11029 10990 10990 11029 11030 10991 10991 11030 394 
395 270 271 11031 10992 10992 11031 11032 10993 
10993 11032 11033 10994 10994 11033 11034 10995 10995 
11034 11035 10996 10996 11035 11036 10997 10997 11036 
11037 10998 10998 11037 11038 10999 10999 11038 11039 
11000 11000 11039 11040 11001 11001 11040 11041 11002 
11002 11041 11042 11003 11003 11042 11043 11004 11004 
11043 11044 11005 11005 11044 11045 11006 11006 11045 
11046 11007 11007 11046 11047 11008 11008 11047 11048 
11009 11009 11048 11049 11010 11010 11049 11050 11011 
11011 11050 11051 11012 11012 11051 11052 11013 11013 
11052 11053 11014 11014 11053 11054 11015 11015 11054 
11055 11016 11016 11055 11056 11017 11017 11056 11057 
11018 11018 11057 11058 11019 11019 11058 11059 11020 
11020 11059 11060 11021 11021 11060 11061 11022 11022 
11061 11062 11023 11023 11062 11063 11024 11024 11063 
11064 11025 11025 11064 11065 11026 11026 11065 11066 
11027 11027 11066 11067 11028 11028 11067 11068 11029 
11029 11068 11069 11030 11030 11069 393 394 271 
272 11070 11031 11031 11070 11071 11032 11032 11071 
11072 11033 11033 11072 11073 11034 11034 11073 11074 
11035 11035 11074 11075 11036 11036 11075 11076 11037 
11037 11076 11077 11038 11038 11077 11078 11039 11039 
11078 11079 11040 11040 11079 11080 11041 11041 11080 
11081 11042 11042 11081 11082 11043 11043 11082 11083 
11044 11044 11083 11084 11045 11045 11084 11085 11046 
11046 11085 11086 11047 11047 11086 11087 11048 11048 
11087 11088 11049 11049 11088 11089 11050 11050 11089 
11090 11051 11051 11090 11091 11052 11052 11091 11092 
11053 11053 11092 11093 11054 11054 11093 11094 11055 
11055 11094 11095 11056 11056 11095 11096 11057 11057 
11096 11097 11058 11058 11097 11098 11059 11059 11098 
11099 11060 11060 11099 11100 11061 11061 11100 11101 
11062 11062 11101 11102 11063 11063 11102 11103 11064 
11064 11103 11104 11065 11065 11104 11105 11066 11066 
11105 11106 11067 11067 11106 11107 11068 11068 11107 
11108 11069 11069 11108 392 393 272 273 11109 
11070 11070 11109 11110 11071 11071 11110 11111 11072 
11072 11111 11112 11073 11073 11112 11113 11074 11074 
11113 11114 11075 11075 11114 11115 11076 11076 11115 
11116 11077 11077 11116 11117 11078 11078 11117 11118 
11079 11079 11118 11119 11080 11080 11119 11120 11081 
11081 11120 11121 11082 11082 11121 11122 11083 11083 
11122 11123 11084 11084 11123 11124 11085 11085 11124 
11125 11086 11086 11125 11126 11087 11087 11126 11127 
11088 11088 11127 11128 11089 11089 11128 11129 11090 
11090 11129 11130 11091 11091 11130 11131 11092 11092 
11131 11132 11093 11093 11132 11133 11094 11094 11133 
11134 11095 11095 11134 11135 11096 11096 11135 11136 
11097 11097 11136 11137 11098 11098 11137 11138 11099 
11099 11138 11139 11100 11100 11139 11140 11101 11101 
11140 11141 11102 11102 11141 11142 11103 11103 11142 
11143 11104 11104 11143 11144 11105 11105 11144 11145 
11106 11106 11145 11146 11107 11107 11146 11147 11108 
11108 11147 391 392 273 274 11148 11109 11109 
11148 11149 11110 11110 11149 11150 11111 11111 11150 
11151 11112 11112 11151 11152 11113 11113 11152 11153 
11114 11114 11153 11154 11115 11115 11154 11155 11116 
11116 11155 11156 11117 11117 11156 11157 11118 11118 
11157 11158 11119 11119 11158 11159 11120 11120 11159 
11160 11121 11121 11160 11161 11122 11122 11161 11162 
11123 11123 11162 11163 11124 11124 11163 11164 11125 
11125 11164 11165 11126 11126 11165 11166 11127 11127 
11166 11167 11128 11128 11167 11168 11129 11129 11168 
11169 11130 11130 11169 11170 11131 11131 11170 11171 
11132 11132 11171 11172 11133 11133 11172 11173 11134 
11134 11173 11174 11135 11135 11174 11175 11136 11136 
11175 11176 11137 11137 11176 11177 11138 11138 11177 
11178 11139 11139 11178 11179 11140 11140 11179 11180 
11141 11141 11180 11181 11142 11142 11181 11182 11143 
11143 11182 11183 11144 11144 11183 11184 11145 11145 
11184 11185 11146 11146 11185 11186 11147 11147 11186 
390 391 274 275 11187 11148 11148 11187 11188 
11149 11149 11188 11189 11150 11150 11189 11190 11151 
11151 11190 11191 11152 11152 11191 11192 11153 11153 
11192 11193 11154 11154 11193 11194 11155 11155 11194 
11195 11156 11156 11195 11196 11157 11157 11196 11197 
11158 11158 11197 11198 11159 11159 11198 11199 11160 
11160 11199 11200 11161 11161 11200 11201 11162 11162 
11201 11202 11163 11163 11202 11203 11164 11164 11203 
11204 11165 11165 11204 11205 11166 11166 11205 11206 
11167 11167 11206 11207 11168 11168 11207 11208 11169 
11169 11208 11209 11170 11170 11209 11210 11171 11171 
11210 11211 11172 11172 11211 11212 11173 11173 11212 
11213 11174 11174 11213 11214 11175 11175 11214 11215 
11176 11176 11215 11216 11177 11177 11216 11217 11178 
11178 11217 11218 11179 11179 11218 11219 11180 11180 
11219 11220 11181 11181 11220 11221 11182 11182 11221 
11222 11183 11183 11222 11223 11184 11184 11223 11224 
11185 11185 11224 11225 11186 11186 11225 389 390 
275 276 11226 11187 11187 11226 11227 11188 11188 
11227 11228 11189 11189 11228 11229 11190 11190 11229 
11230 11191 11191 11230 11231 11192 11192 11231 11232 
11193 11193 11232 11233 11194 11194 11233 11234 11195 
11195 11234 11235 11196 11196 11235 11236 11197 11197 
11236 11237 11198 11198 11237 11238 11199 11199 11238 
11239 11200 11200 11239 11240 11201 11201 11240 11241 
11202 11202 11241 11242 11203 11203 11242 11243 11204 
11204 11243 11244 11205 11205 11244 11245 11206 11206 
11245 11246 11207 11207 11246 11247 11208 11208 11247 
11248 11209 11209 11248 11249 11210 11210 11249 11250 
11211 11211 11250 11251 11212 11212 11251 11252 11213 
11213 11252 11253 11214 11214 11253 11254 11215 11215 
11254 11255 11216 11216 11255 11256 11217 11217 11256 
11257 11218 11218 11257 11258 11219 11219 11258 11259 
11220 11220 11259 11260 11221 11221 11260 11261 11222 
11222 11261 11262 11223 11223 11262 11263 11224 11224 
11263 11264 11225 11225 11264 388 389 276 277 
11265 11226 11226 11265 11266 11227 11227 11266 11267 
11228 11228 11267 11268 11229 11229 11268 11269 11230 
11230 11269 11270 11231 11231 11270 11271 11232 11232 
11271 11272 11233 11233 11272 11273 11234 11234 11273 
11274 11235 11235 11274 11275 11236 11236 11275 11276 
11237 11237 11276 11277 11238 11238 11277 11278 11239 
11239 11278 11279 11240 11240 11279 11280 11241 11241 
11280 11281 11242 11242 11281 11282 11243 11243 11282 
11283 11244 11244 11283 11284 11245 11245 11284 11285 
11246 11246 11285 11286 11247 11247 11286 11287 11248 
11248 11287 11288 11249 11249 11288 11289 11250 11250 
11289 11290 11251 11251 11290 11291 11252 11252 11291 
11292 11253 11253 11292 11293 11254 11254 11293 11294 
11255 11255 11294 11295 11256 11256 11295 11296 11257 
11257 11296 11297 11258 11258 11297 11298 11259 11259 
11298 11299 11260 11260 11299 11300 11261 11261 11300 
11301 11262 11262 11301 11302 11263 11263 11302 11303 
11264 11264 11303 387 388 277 278 11304 11265 
11265 11304 11305 11266 11266 11305 11306 11267 11267 
11306 11307 11268 11268 11307 11308 11269 11269 11308 
11309 11270 11270 11309 11310 11271 11271 11310 11311 
11272 11272 11311 11312 11273 11273 11312 11313 11274 
11274 11313 11314 11275 11275 11314 11315 11276 11276 
11315 11316 11277 11277 11316 11317 11278 11278 11317 
11318 11279 11279 11318 11319 11280 11280 11319 11320 
11281 11281 11320 11321 11282 11282 11321 11322 11283 
11283 11322 11323 11284 11284 11323 11324 11285 11285 
11324 11325 11286 11286 11325 11326 11287 11287 11326 
11327 11288 11288 11327 11328 11289 11289 11328 11329 
11290 11290 11329 11330 11291 11291 11330 11331 11292 
11292 11331 11332 11293 11293 11332 11333 11294 11294 
11333 11334 11295 11295 11334 11335 11296 11296 11335 
11336 11297 11297 11336 11337 11298 11298 11337 11338 
11299 11299 11338 11339 11300 11300 11339 11340 11301 
11301 11340 11341 11302 11302 11341 11342 11303 11303 
11342 386 387 278 279 11343 11304 11304 11343 
11344 11305 11305 11344 11345 11306 11306 11345 11346 
11307 11307 11346 11347 11308 11308 11347 11348 11309 
11309 11348 11349 11310 11310 11349 11350 11311 11311 
11350 11351 11312 11312 11351 11352 11313 11313 11352 
11353 11314 11314 11353 11354 11315 11315 11354 11355 
11316 11316 11355 11356 11317 11317 11356 11357 11318 
11318 11357 11358 11319 11319 11358 11359 11320 11320 
11359 11360 11321 11321 11360 11361 11322 11322 11361 
11362 11323 11323 11362 11363 11324 11324 11363 11364 
11325 11325 11364 11365 11326 11326 11365 11366 11327 
11327 11366 11367 11328 11328 11367 11368 11329 11329 
11368 11369 11330 11330 11369 11370 11331 11331 11370 
11371 11332 11332 11371 11372 11333 11333 11372 11373 
11334 11334 11373 11374 11335 11335 11374 11375 11336 
11336 11375 11376 11337 11337 11376 11377 11338 11338 
11377 11378 11339 11339 11378 11379 11340 11340 11379 
11380 11341 11341 11380 11381 11342 11342 11381 385 
386 279 280 11382 11343 11343 11382 11383 11344 
11344 11383 11384 11345 11345 11384 11385 11346 11346 
11385 11386 11347 11347 11386 11387 11348 11348 11387 
11388 11349 11349 11388 11389 11350 11350 11389 11390 
11351 11351 11390 11391 11352 11352 11391 11392 11353 
11353 11392 11393 11354 11354 11393 11394 11355 11355 
11394 11395 11356 11356 11395 11396 11357 11357 11396 
11397 11358 11358 11397 11398 11359 11359 11398 11399 
11360 11360 11399 11400 11361 11361 11400 11401 11362 
11362 11401 11402 11363 11363 11402 11403 11364 11364 
11403 11404 11365 11365 11404 11405 11366 11366 11405 
11406 11367 11367 11406 11407 11368 11368 11407 11408 
11369 11369 11408 11409 11370 11370 11409 11410 11371 
11371 11410 11411 11372 11372 11411 11412 11373 11373 
11412 11413 11374 11374 11413 11414 11375 11375 11414 
11415 11376 11376 11415 11416 11377 11377 11416 11417 
11378 11378 11417 11418 11379 11379 11418 11419 11380 
11380 11419 11420 11381 11381 11420 384 385 280 
281 11421 11382 11382 11421 11422 11383 11383 11422 
11423 11384 11384 11423 11424 11385 11385 11424 11425 
11386 11386 11425 11426 11387 11387 11426 11427 11388 
11388 11427 11428 11389 11389 11428 11429 11390 11390 
11429 11430 11391 11391 11430 11431 11392 11392 11431 
11432 11393 11393 11432 11433 11394 11394 11433 11434 
11395 11395 11434 11435 11396 11396 11435 11436 11397 
11397 11436 11437 11398 11398 11437 11438 11399 11399 
11438 11439 11400 11400 11439 11440 11401 11401 11440 
11441 11402 11402 11441 11442 11403 11403 11442 11443 
11404 11404 11443 11444 11405 11405 11444 11445 11406 
11406 11445 11446 11407 11407 11446 11447 11408 11408 
11447 11448 11409 11409 11448 11449 11410 11410 11449 
11450 11411 11411 11450 11451 11412 11412 11451 11452 
11413 11413 11452 11453 11414 11414 11453 11454 11415 
11415 11454 11455 11416 11416 11455 11456 11417 11417 
11456 11457 11418 11418 11457 11458 11419 11419 11458 
11459 11420 11420 11459 383 384 281 282 11460 
11421 11421 11460 11461 11422 11422 11461 11462 11423 
11423 11462 11463 11424 11424 11463 11464 11425 11425 
11464 11465 11426 11426 11465 11466 11427 11427 11466 
11467 11428 11428 11467 11468 11429 11429 11468 11469 
11430 11430 11469 11470 11431 11431 11470 11471 11432 
11432 11471 11472 11433 11433 11472 11473 11434 11434 
11473 11474 11435 11435 11474 11475 11436 11436 11475 
11476 11437 11437 11476 11477 11438 11438 11477 11478 
11439 11439 11478 11479 11440 11440 11479 11480 11441 
11441 11480 11481 11442 11442 11481 11482 11443 11443 
11482 11483 11444 11444 11483 11484 11445 11445 11484 
11485 11446 11446 11485 11486 11447 11447 11486 11487 
11448 11448 11487 11488 11449 11449 11488 11489 11450 
11450 11489 11490 11451 11451 11490 11491 11452 11452 
11491 11492 11453 11453 11492 11493 11454 11454 11493 
11494 11455 11455 11494 11495 11456 11456 11495 11496 
11457 11457 11496 11497 11458 11458 11497 11498 11459 
11459 11498 382 383 282 283 11499 11460 11460 
11499 11500 11461 11461 11500 11501 11462 11462 11501 
11502 11463 11463 11502 11503 11464 11464 11503 11504 
11465 11465 11504 11505 11466 11466 11505 11506 11467 
11467 11506 11507 11468 11468 11507 11508 11469 11469 
11508 11509 11470 11470 11509 11510 11471 11471 11510 
11511 11472 11472 11511 11512 11473 11473 11512 11513 
11474 11474 11513 11514 11475 11475 11514 11515 11476 
11476 11515 11516 11477 11477 11516 11517 11478 11478 
11517 11518 11479 11479 11518 11519 11480 11480 11519 
11520 11481 11481 11520 11521 11482 11482 11521 11522 
11483 11483 11522 11523 11484 11484 11523 11524 11485 
11485 11524 11525 11486 11486 11525 11526 11487 11487 
11526 11527 11488 11488 11527 11528 11489 11489 11528 
11529 11490 11490 11529 11530 11491 11491 11530 11531 
11492 11492 11531 11532 11493 11493 11532 11533 11494 
11494 11533 11534 11495 11495 11534 11535 11496 11496 
11535 11536 11497 11497 11536 11537 11498 11498 11537 
381 382 283 284 11538 11499 11499 11538 11539 
11500 11500 11539 11540 11501 11501 11540 11541 11502 
11502 11541 11542 11503 11503 11542 11543 11504 11504 
11543 11544 11505 11505 11544 11545 11506 11506 11545 
11546 11507 11507 11546 11547 11508 11508 11547 11548 
11509 11509 11548 11549 11510 11510 11549 11550 11511 
11511 11550 11551 11512 11512 11551 11552 11513 11513 
11552 11553 11514 11514 11553 11554 11515 11515 11554 
11555 11516 11516 11555 11556 11517 11517 11556 11557 
11518 11518 11557 11558 11519 11519 11558 11559 11520 
11520 11559 11560 11521 11521 11560 11561 11522 11522 
11561 11562 11523 11523 11562 11563 11524 11524 11563 
11564 11525 11525 11564 11565 11526 11526 11565 11566 
11527 11527 11566 11567 11528 11528 11567 11568 11529 
11529 11568 11569 11530 11530 11569 11570 11531 11531 
11570 11571 11532 11532 11571 11572 11533 11533 11572 
11573 11534 11534 11573 11574 11535 11535 11574 11575 
11536 11536 11575 11576 11537 11537 11576 380 381 
284 285 11577 11538 11538 11577 11578 11539 11539 
11578 11579 11540 11540 11579 11580 11541 11541 11580 
11581 11542 11542 11581 11582 11543 11543 11582 11583 
11544 11544 11583 11584 11545 11545 11584 11585 11546 
11546 11585 11586 11547 11547 11586 11587 11548 11548 
11587 11588 11549 11549 11588 11589 11550 11550 11589 
11590 11551 11551 11590 11591 11552 11552 11591 11592 
11553 11553 11592 11593 11554 11554 11593 11594 11555 
11555 11594 11595 11556 11556 11595 11596 11557 11557 
11596 11597 11558 11558 11597 11598 11559 11559 11598 
11599 11560 11560 11599 11600 11561 11561 11600 11601 
11562 11562 11601 11602 11563 11563 11602 11603 11564 
11564 11603 11604 11565 11565 11604 11605 11566 11566 
11605 11606 11567 11567 11606 11607 11568 11568 11607 
11608 11569 11569 11608 11609 11570 11570 11609 11610 
11571 11571 11610 11611 11572 11572 11611 11612 11573 
11573 11612 11613 11574 11574 11613 11614 11575 11575 
11614 11615 11576 11576 11615 379 380 285 286 
11616 11577 11577 11616 11617 11578 11578 11617 11618 
11579 11579 11618 11619 11580 11580 11619 11620 11581 
11581 11620 11621 11582 11582 11621 11622 11583 11583 
11622 11623 11584 11584 11623 11624 11585 11585 11624 
11625 11586 11586 11625 11626 11587 11587 11626 11627 
11588 11588 11627 11628 11589 11589 11628 11629 11590 
11590 11629 11630 11591 11591 11630 11631 11592 11592 
11631 11632 11593 11593 11632 11633 11594 11594 11633 
11634 11595 11595 11634 11635 11596 11596 11635 11636 
11597 11597 11636 11637 11598 11598 11637 11638 11599 
11599 11638 11639 11600 11600 11639 11640 11601 11601 
11640 11641 11602 11602 11641 11642 11603 11603 11642 
11643 11604 11604 11643 11644 11605 11605 11644 11645 
11606 11606 11645 11646 11607 11607 11646 11647 11608 
11608 11647 11648 11609 11609 11648 11649 11610 11610 
11649 11650 11611 11611 11650 11651 11612 11612 11651 
11652 11613 11613 11652 11653 11614 11614 11653 11654 
11615 11615 11654 378 379 286 287 11655 11616 
11616 11655 11656 11617 11617 11656 11657 11618 11618 
11657 11658 11619 11619 11658 11659 11620 11620 11659 
11660 11621 11621 11660 11661 11622 11622 11661 11662 
11623 11623 11662 11663 11624 11624 11663 11664 11625 
11625 11664 11665 11626 11626 11665 11666 11627 11627 
11666 11667 11628 11628 11667 11668 11629 11629 11668 
11669 11630 11630 11669 11670 11631 11631 11670 11671 
11632 11632 11671 11672 11633 11633 11672 11673 11634 
11634 11673 11674 11635 11635 11674 11675 11636 11636 
11675 11676 11637 11637 11676 11677 11638 11638 11677 
11678 11639 11639 11678 11679 11640 11640 11679 11680 
11641 11641 11680 11681 11642 11642 11681 11682 11643 
11643 11682 11683 11644 11644 11683 11684 11645 11645 
11684 11685 11646 11646 11685 11686 11647 11647 11686 
11687 11648 11648 11687 11688 11649 11649 11688 11689 
11650 11650 11689 11690 11651 11651 11690 11691 11652 
11652 11691 11692 11653 11653 11692 11693 11654 11654 
11693 377 378 287 288 11694 11655 11655 11694 
11695 11656 11656 11695 11696 11657 11657 11696 11697 
11658 11658 11697 11698 11659 11659 11698 11699 11660 
11660 11699 11700 11661 11661 11700 11701 11662 11662 
11701 11702 11663 11663 11702 11703 11664 11664 11703 
11704 11665 11665 11704 11705 11666 11666 11705 11706 
11667 11667 11706 11707 11668 11668 11707 11708 11669 
11669 11708 11709 11670 11670 11709 11710 11671 11671 
11710 11711 11672 11672 11711 11712 11673 11673 11712 
11713 11674 11674 11713 11714 11675 11675 11714 11715 
11676 11676 11715 11716 11677 11677 11716 11717 11678 
11678 11717 11718 11679 11679 11718 11719 11680 11680 
11719 11720 11681 11681 11720 11721 11682 11682 11721 
11722 11683 11683 11722 11723 11684 11684 11723 11724 
11685 11685 11724 11725 11686 11686 11725 11726 11687 
11687 11726 11727 11688 11688 11727 11728 11689 11689 
11728 11729 11690 11690 11729 11730 11691 11691 11730 
11731 11692 11692 11731 11732 11693 11693 11732 376 
377 288 289 11733 11694 11694 11733 11734 11695 
11695 11734 11735 11696 11696 11735 11736 11697 11697 
11736 11737 11698 11698 11737 11738 11699 11699 11738 
11739 11700 11700 11739 11740 11701 11701 11740 11741 
11702 11702 11741 11742 11703 11703 11742 11743 11704 
11704 11743 11744 11705 11705 11744 11745 11706 11706 
11745 11746 11707 11707 11746 11747 11708 11708 11747 
11748 11709 11709 11748 11749 11710 11710 11749 11750 
11711 11711 11750 11751 11712 11712 11751 11752 11713 
11713 11752 11753 11714 11714 11753 11754 11715 11715 
11754 11755 11716 11716 11755 11756 11717 11717 11756 
11757 11718 11718 11757 11758 11719 11719 11758 11759 
11720 11720 11759 11760 11721 11721 11760 11761 11722 
11722 11761 11762 11723 11723 11762 11763 11724 11724 
11763 11764 11725 11725 11764 11765 11726 11726 11765 
11766 11727 11727 11766 11767 11728 11728 11767 11768 
11729 11729 11768 11769 11730 11730 11769 11770 11731 
11731 11770 11771 11732 11732 11771 375 376 289 
290 11772 11733 11733 11772 11773 11734 11734 11773 
11774 11735 11735 11774 11775 11736 11736 11775 11776 
11737 11737 11776 11777 11738 11738 11777 11778 11739 
11739 11778 11779 11740 11740 11779 11780 11741 11741 
11780 11781 11742 11742 11781 11782 11743 11743 11782 
11783 11744 11744 11783 11784 11745 11745 11784 11785 
11746 11746 11785 11786 11747 11747 11786 11787 11748 
11748 11787 11788 11749 11749 11788 11789 11750 11750 
11789 11790 11751 11751 11790 11791 11752 11752 11791 
11792 11753 11753 11792 11793 11754 11754 11793 11794 
11755 11755 11794 11795 11756 11756 11795 11796 11757 
11757 11796 11797 11758 11758 11797 11798 11759 11759 
11798 11799 11760 11760 11799 11800 11761 11761 11800 
11801 11762 11762 11801 11802 11763 11763 11802 11803 
11764 11764 11803 11804 11765 11765 11804 11805 11766 
11766 11805 11806 11767 11767 11806 11807 11768 11768 
11807 11808 11769 11769 11808 11809 11770 11770 11809 
11810 11771 11771 11810 374 375 290 291 11811 
11772 11772 11811 11812 11773 11773 11812 11813 11774 
11774 11813 11814 11775 11775 11814 11815 11776 11776 
11815 11816 11777 11777 11816 11817 11778 11778 11817 
11818 11779 11779 11818 11819 11780 11780 11819 11820 
11781 11781 11820 11821 11782 11782 11821 11822 11783 
11783 11822 11823 11784 11784 11823 11824 11785 11785 
11824 11825 11786 11786 11825 11826 11787 11787 11826 
11827 11788 11788 11827 11828 11789 11789 11828 11829 
11790 11790 11829 11830 11791 11791 11830 11831 11792 
11792 11831 11832 11793 11793 11832 11833 11794 11794 
11833 11834 11795 11795 11834 11835 11796 11796 11835 
11836 11797 11797 11836 11837 11798 11798 11837 11838 
11799 11799 11838 11839 11800 11800 11839 11840 11801 
11801 11840 11841 11802 11802 11841 11842 11803 11803 
11842 11843 11804 11804 11843 11844 11805 11805 11844 
11845 11806 11806 11845 11846 11807 11807 11846 11847 
11808 11808 11847 11848 11809 11809 11848 11849 11810 
11810 11849 373 374 291 292 11850 11811 11811 
11850 11851 11812 11812 11851 11852 11813 11813 11852 
11853 11814 11814 11853 11854 11815 11815 11854 11855 
11816 11816 11855 11856 11817 11817 11856 11857 11818 
11818 11857 11858 11819 11819 11858 11859 11820 11820 
11859 11860 11821 11821 11860 11861 11822 11822 11861 
11862 11823 11823 11862 11863 11824 11824 11863 11864 
11825 11825 11864 11865 11826 11826 11865 11866 11827 
11827 11866 11867 11828 11828 11867 11868 11829 11829 
11868 11869 11830 11830 11869 11870 11831 11831 11870 
11871 11832 11832 11871 11872 11833 11833 11872 11873 
11834 11834 11873 11874 11835 11835 11874 11875 11836 
11836 11875 11876 11837 11837 11876 11877 11838 11838 
11877 11878 11839 11839 11878 11879 11840 11840 11879 
11880 11841 11841 11880 11881 11842 11842 11881 11882 
11843 11843 11882 11883 11844 11844 11883 11884 11845 
11845 11884 11885 11846 11846 11885 11886 11847 11847 
11886 11887 11848 11848 11887 11888 11849 11849 11888 
372 373 292 293 11889 11850 11850 11889 11890 
11851 11851 11890 11891 11852 11852 11891 11892 11853 
11853 11892 11893 11854 11854 11893 11894 11855 11855 
11894 11895 11856 11856 11895 11896 11857 11857 11896 
11897 11858 11858 11897 11898 11859 11859 11898 11899 
11860 11860 11899 11900 11861 11861 11900 11901 11862 
11862 11901 11902 11863 11863 11902 11903 11864 11864 
11903 11904 11865 11865 11904 11905 11866 11866 11905 
11906 11867 11867 11906 11907 11868 11868 11907 11908 
11869 11869 11908 11909 11870 11870 11909 11910 11871 
11871 11910 11911 11872 11872 11911 11912 11873 11873 
11912 11913 11874 11874 11913 11914 11875 11875 11914 
11915 11876 11876 11915 11916 11877 11877 11916 11917 
11878 11878 11917 11918 11879 11879 11918 11919 11880 
11880 11919 11920 11881 11881 11920 11921 11882 11882 
11921 11922 11883 11883 11922 11923 11884 11884 11923 
11924 11885 11885 11924 11925 11886 11886 11925 11926 
11887 11887 11926 11927 11888 11888 11927 371 372 
293 294 11928 11889 11889 11928 11929 11890 11890 
11929 11930 11891 11891 11930 11931 11892 11892 11931 
11932 11893 11893 11932 11933 11894 11894 11933 11934 
11895 11895 11934 11935 11896 11896 11935 11936 11897 
11897 11936 11937 11898 11898 11937 11938 11899 11899 
11938 11939 11900 11900 11939 11940 11901 11901 11940 
11941 11902 11902 11941 11942 11903 11903 11942 11943 
11904 11904 11943 11944 11905 11905 11944 11945 11906 
11906 11945 11946 11907 11907 11946 11947 11908 11908 
11947 11948 11909 11909 11948 11949 11910 11910 11949 
11950 11911 11911 11950 11951 11912 11912 11951 11952 
11913 11913 11952 11953 11914 11914 11953 11954 11915 
11915 11954 11955 11916 11916 11955 11956 11917 11917 
11956 11957 11918 11918 11957 11958 11919 11919 11958 
11959 11920 11920 11959 11960 11921 11921 11960 11961 
11922 11922 11961 11962 11923 11923 11962 11963 11924 
11924 11963 11964 11925 11925 11964 11965 11926 11926 
11965 11966 11927 11927 11966 370 371 294 295 
11967 11928 11928 11967 11968 11929 11929 11968 11969 
11930 11930 11969 11970 11931 11931 11970 11971 11932 
11932 11971 11972 11933 11933 11972 11973 11934 11934 
11973 11974 11935 11935 11974 11975 11936 11936 11975 
11976 11937 11937 11976 11977 11938 11938 11977 11978 
11939 11939 11978 11979 11940 11940 11979 11980 11941 
11941 11980 11981 11942 11942 11981 11982 11943 11943 
11982 11983 11944 11944 11983 11984 11945 11945 11984 
11985 11946 11946 11985 11986 11947 11947 11986 11987 
11948 11948 11987 11988 11949 11949 11988 11989 11950 
11950 11989 11990 11951 11951 11990 11991 11952 11952 
11991 11992 11953 11953 11992 11993 11954 11954 11993 
11994 11955 11955 11994 11995 11956 11956 11995 11996 
11957 11957 11996 11997 11958 11958 11997 11998 11959 
11959 11998 11999 11960 11960 11999 12000 11961 11961 
12000 12001 11962 11962 12001 12002 11963 11963 12002 
12003 11964 11964 12003 12004 11965 11965 12004 12005 
11966 11966 12005 369 370 295 296 12006 11967 
11967 12006 12007 11968 11968 12007 12008 11969 11969 
12008 12009 11970 11970 12009 12010 11971 11971 12010 
12011 11972 11972 12011 12012 11973 11973 12012 12013 
11974 11974 12013 12014 11975 11975 12014 12015 11976 
11976 12015 12016 11977 11977 12016 12017 11978 11978 
12017 12018 11979 11979 12018 12019 11980 11980 12019 
12020 11981 11981 12020 12021 11982 11982 12021 12022 
11983 11983 12022 12023 11984 11984 12023 12024 11985 
11985 12024 12025 11986 11986 12025 12026 11987 11987 
12026 12027 11988 11988 12027 12028 11989 11989 12028 
12029 11990 11990 12029 12030 11991 11991 12030 12031 
11992 11992 12031 12032 11993 11993 12032 12033 11994 
11994 12033 12034 11995 11995 12034 12035 11996 11996 
12035 12036 11997 11997 12036 12037 11998 11998 12037 
12038 11999 11999 12038 12039 12000 12000 12039 12040 
12001 12001 12040 12041 12002 12002 12041 12042 12003 
12003 12042 12043 12004 12004 12043 12044 12005 12005 
12044 368 369 296 297 12045 12006 12006 12045 
12046 12007 12007 12046 12047 12008 12008 12047 12048 
12009 12009 12048 12049 12010 12010 12049 12050 12011 
12011 12050 12051 12012 12012 12051 12052 12013 12013 
12052 12053 12014 12014 12053 12054 12015 12015 12054 
12055 12016 12016 12055 12056 12017 12017 12056 12057 
12018 12018 12057 12058 12019 12019 12058 12059 12020 
12020 12059 12060 12021 12021 12060 12061 12022 12022 
12061 12062 12023 12023 12062 12063 12024 12024 12063 
12064 12025 12025 12064 12065 12026 12026 12065 12066 
12027 12027 12066 12067 12028 12028 12067 12068 12029 
12029 12068 12069 12030 12030 12069 12070 12031 12031 
12070 12071 12032 12032 12071 12072 12033 12033 12072 
12073 12034 12034 12073 12074 12035 12035 12074 12075 
12036 12036 12075 12076 12037 12037 12076 12077 12038 
12038 12077 12078 12039 12039 12078 12079 12040 12040 
12079 12080 12041 12041 12080 12081 12042 12042 12081 
12082 12043 12043 12082 12083 12044 12044 12083 367 
368 297 298 12084 12045 12045 12084 12085 12046 
12046 12085 12086 12047 12047 12086 12087 12048 12048 
12087 12088 12049 12049 12088 12089 12050 12050 12089 
12090 12051 12051 12090 12091 12052 12052 12091 12092 
12053 12053 12092 12093 12054 12054 12093 12094 12055 
12055 12094 12095 12056 12056 12095 12096 12057 12057 
12096 12097 12058 12058 12097 12098 12059 12059 12098 
12099 12060 12060 12099 12100 12061 12061 12100 12101 
12062 12062 12101 12102 12063 12063 12102 12103 12064 
12064 12103 12104 12065 12065 12104 12105 12066 12066 
12105 12106 12067 12067 12106 12107 12068 12068 12107 
12108 12069 12069 12108 12109 12070 12070 12109 12110 
12071 12071 12110 12111 12072 12072 12111 12112 12073 
12073 12112 12113 12074 12074 12113 12114 12075 12075 
12114 12115 12076 12076 12115 12116 12077 12077 12116 
12117 12078 12078 12117 12118 12079 12079 12118 12119 
12080 12080 12119 12120 12081 12081 12120 12121 12082 
12082 12121 12122 12083 12083 12122 366 367 298 
299 12123 12084 12084 12123 12124 12085 12085 12124 
12125 12086 12086 12125 12126 12087 12087 12126 12127 
12088 12088 12127 12128 12089 12089 12128 12129 12090 
12090 12129 12130 12091 12091 12130 12131 12092 12092 
12131 12132 12093 12093 12132 12133 12094 12094 12133 
12134 12095 12095 12134 12135 12096 12096 12135 12136 
12097 12097 12136 12137 12098 12098 12137 12138 12099 
12099 12138 12139 12100 12100 12139 12140 12101 12101 
12140 12141 12102 12102 12141 12142 12103 12103 12142 
12143 12104 12104 12143 12144 12105 12105 12144 12145 
12106 12106 12145 12146 12107 12107 12146 12147 12108 
12108 12147 12148 12109 12109 12148 12149 12110 12110 
12149 12150 12111 12111 12150 12151 12112 12112 12151 
12152 12113 12113 12152 12153 12114 12114 12153 12154 
12115 12115 12154 12155 12116 12116 12155 12156 12117 
12117 12156 12157 12118 12118 12157 12158 12119 12119 
12158 12159 12120 12120 12159 12160 12121 12121 12160 
12161 12122 12122 12161 365 366 299 300 12162 
12123 12123 12162 12163 12124 12124 12163 12164 12125 
12125 12164 12165 12126 12126 12165 12166 12127 12127 
12166 12167 12128 12128 12167 12168 12129 12129 12168 
12169 12130 12130 12169 12170 12131 12131 12170 12171 
12132 12132 12171 12172 12133 12133 12172 12173 12134 
12134 12173 12174 12135 12135 12174 12175 12136 12136 
12175 12176 12137 12137 12176 12177 12138 12138 12177 
12178 12139 12139 12178 12179 12140 12140 12179 12180 
12141 12141 12180 12181 12142 12142 12181 12182 12143 
12143 12182 12183 12144 12144 12183 12184 12145 12145 
12184 12185 12146 12146 12185 12186 12147 12147 12186 
12187 12148 12148 12187 12188 12149 12149 12188 12189 
12150 12150 12189 12190 12151 12151 12190 12191 12152 
12152 12191 12192 12153 12153 12192 12193 12154 12154 
12193 12194 12155 12155 12194 12195 12156 12156 12195 
12196 12157 12157 12196 12197 12158 12158 12197 12198 
12159 12159 12198 12199 12160 12160 12199 12200 12161 
12161 12200 364 365 300 301 12201 12162 12162 
12201 12202 12163 12163 12202 12203 12164 12164 12203 
12204 12165 12165 12204 12205 12166 12166 12205 12206 
12167 12167 12206 12207 12168 12168 12207 12208 12169 
12169 12208 12209 12170 12170 12209 12210 12171 12171 
12210 12211 12172 12172 12211 12212 12173 12173 12212 
12213 12174 12174 12213 12214 12175 12175 12214 12215 
12176 12176 12215 12216 12177 12177 12216 12217 12178 
12178 12217 12218 12179 12179 12218 12219 12180 12180 
12219 12220 12181 12181 12220 12221 12182 12182 12221 
12222 12183 12183 12222 12223 12184 12184 12223 12224 
12185 12185 12224 12225 12186 12186 12225 12226 12187 
12187 12226 12227 12188 12188 12227 12228 12189 12189 
12228 12229 12190 12190 12229 12230 12191 12191 12230 
12231 12192 12192 12231 12232 12193 12193 12232 12233 
12194 12194 12233 12234 12195 12195 12234 12235 12196 
12196 12235 12236 12197 12197 12236 12237 12198 12198 
12237 12238 12199 12199 12238 12239 12200 12200 12239 
363 364 301 302 12240 12201 12201 12240 12241 
12202 12202 12241 12242 12203 12203 12242 12243 12204 
12204 12243 12244 12205 12205 12244 12245 12206 12206 
12245 12246 12207 12207 12246 12247 12208 12208 12247 
12248 12209 12209 12248 12249 12210 12210 12249 12250 
12211 12211 12250 12251 12212 12212 12251 12252 12213 
12213 12252 12253 12214 12214 12253 12254 12215 12215 
12254 12255 12216 12216 12255 12256 12217 12217 12256 
12257 12218 12218 12257 12258 12219 12219 12258 12259 
12220 12220 12259 12260 12221 12221 12260 12261 12222 
12222 12261 12262 12223 12223 12262 12263 12224 12224 
12263 12264 12225 12225 12264 12265 12226 12226 12265 
12266 12227 12227 12266 12267 12228 12228 12267 12268 
12229 12229 12268 12269 12230 12230 12269 12270 12231 
12231 12270 12271 12232 12232 12271 12272 12233 12233 
12272 12273 12234 12234 12273 12274 12235 12235 12274 
12275 12236 12236 12275 12276 12237 12237 12276 12277 
12238 12238 12277 12278 12239 12239 12278 362 363 
302 303 12279 12240 12240 12279 12280 12241 12241 
12280 12281 12242 12242 12281 12282 12243 12243 12282 
12283 12244 12244 12283 12284 12245 12245 12284 12285 
12246 12246 12285 12286 12247 12247 12286 12287 12248 
12248 12287 12288 12249 12249 12288 12289 12250 12250 
12289 12290 12251 12251 12290 12291 12252 12252 12291 
12292 12253 12253 12292 12293 12254 12254 12293 12294 
12255 12255 12294 12295 12256 12256 12295 12296 12257 
12257 12296 12297 12258 12258 12297 12298 12259 12259 
12298 12299 12260 12260 12299 12300 12261 12261 12300 
12301 12262 12262 12301 12302 12263 12263 12302 12303 
12264 12264 12303 12304 12265 12265 12304 12305 12266 
12266 12305 12306 12267 12267 12306 12307 12268 12268 
12307 12308 12269 12269 12308 12309 12270 12270 12309 
12310 12271 12271 12310 12311 12272 12272 12311 12312 
12273 12273 12312 12313 12274 12274 12313 12314 12275 
12275 12314 12315 12276 12276 12315 12316 12277 12277 
12316 12317 12278 12278 12317 361 362 303 304 
12318 12279 12279 12318 12319 12280 12280 12319 12320 
12281 12281 12320 12321 12282 12282 12321 12322 12283 
12283 12322 12323 12284 12284 12323 12324 12285 12285 
12324 12325 12286 12286 12325 12326 12287 12287 12326 
12327 12288 12288 12327 12328 12289 12289 12328 12329 
12290 12290 12329 12330 12291 12291 12330 12331 12292 
12292 12331 12332 12293 12293 12332 12333 12294 12294 
12333 12334 12295 12295 12334 12335 12296 12296 12335 
12336 12297 12297 12336 12337 12298 12298 12337 12338 
12299 12299 12338 12339 12300 12300 12339 12340 12301 
12301 12340 12341 12302 12302 12341 12342 12303 12303 
12342 12343 12304 12304 12343 12344 12305 12305 12344 
12345 12306 12306 12345 12346 12307 12307 12346 12347 
12308 12308 12347 12348 12309 12309 12348 12349 12310 
12310 12349 12350 12311 12311 12350 12351 12312 12312 
12351 12352 12313 12313 12352 12353 12314 12314 12353 
12354 12315 12315 12354 12355 12316 12316 12355 12356 
12317 12317 12356 360 361 304 305 12357 12318 
12318 12357 12358 12319 12319 12358 12359 12320 12320 
12359 12360 12321 12321 12360 12361 12322 12322 12361 
12362 12323 12323 12362 12363 12324 12324 12363 12364 
12325 12325 12364 12365 12326 12326 12365 12366 12327 
12327 12366 12367 12328 12328 12367 12368 12329 12329 
12368 12369 12330 12330 12369 12370 12331 12331 12370 
12371 12332 12332 12371 12372 12333 12333 12372 12373 
12334 12334 12373 12374 12335 12335 12374 12375 12336 
12336 12375 12376 12337 12337 12376 12377 12338 12338 
12377 12378 12339 12339 12378 12379 12340 12340 12379 
12380 12341 12341 12380 12381 12342 12342 12381 12382 
12343 12343 12382 12383 12344 12344 12383 12384 12345 
12345 12384 12385 12346 12346 12385 12386 12347 12347 
12386 12387 12348 12348 12387 12388 12349 12349 12388 
12389 12350 12350 12389 12390 12351 12351 12390 12391 
12352 12352 12391 12392 12353 12353 12392 12393 12354 
12354 12393 12394 12355 12355 12394 12395 12356 12356 
12395 359 360 305 306 12396 12357 12357 12396 
12397 12358 12358 12397 12398 12359 12359 12398 12399 
12360 12360 12399 12400 12361 12361 12400 12401 12362 
12362 12401 12402 12363 12363 12402 12403 12364 12364 
12403 12404 12365 12365 12404 12405 12366 12366 12405 
12406 12367 12367 12406 12407 12368 12368 12407 12408 
12369 12369 12408 12409 12370 12370 12409 12410 12371 
12371 12410 12411 12372 12372 12411 12412 12373 12373 
12412 12413 12374 12374 12413 12414 12375 12375 12414 
12415 12376 12376 12415 12416 12377 12377 12416 12417 
12378 12378 12417 12418 12379 12379 12418 12419 12380 
12380 12419 12420 12381 12381 12420 12421 12382 12382 
12421 12422 12383 12383 12422 12423 12384 12384 12423 
12424 12385 12385 12424 12425 12386 12386 12425 12426 
12387 12387 12426 12427 12388 12388 12427 12428 12389 
12389 12428 12429 12390 12390 12429 12430 12391 12391 
12430 12431 12392 12392 12431 12432 12393 12393 12432 
12433 12394 12394 12433 12434 12395 12395 12434 358 
359 306 307 12435 12396 12396 12435 12436 12397 
12397 12436 12437 12398 12398 12437 12438 12399 12399 
12438 12439 12400 12400 12439 12440 12401 12401 12440 
12441 12402 12402 12441 12442 12403 12403 12442 12443 
12404 12404 12443 12444 12405 12405 12444 12445 12406 
12406 12445 12446 12407 12407 12446 12447 12408 12408 
12447 12448 12409 12409 12448 12449 12410 12410 12449 
12450 12411 12411 12450 12451 12412 12412 12451 12452 
12413 12413 12452 12453 12414 12414 12453 12454 12415 
12415 12454 12455 12416 12416 12455 12456 12417 12417 
12456 12457 12418 12418 12457 12458 12419 12419 12458 
12459 12420 12420 12459 12460 12421 12421 12460 12461 
12422 12422 12461 12462 12423 12423 12462 12463 12424 
12424 12463 12464 12425 12425 12464 12465 12426 12426 
12465 12466 12427 12427 12466 12467 12428 12428 12467 
12468 12429 12429 12468 12469 12430 12430 12469 12470 
12431 12431 12470 12471 12432 12432 12471 12472 12433 
12433 12472 12473 12434 12434 12473 357 358 307 
308 12474 12435 12435 12474 12475 12436 12436 12475 
12476 12437 12437 12476 12477 12438 12438 12477 12478 
12439 12439 12478 12479 12440 12440 12479 12480 12441 
12441 12480 12481 12442 12442 12481 12482 12443 12443 
12482 12483 12444 12444 12483 12484 12445 12445 12484 
12485 12446 12446 12485 12486 12447 12447 12486 12487 
12448 12448 12487 12488 12449 12449 12488 12489 12450 
12450 12489 12490 12451 12451 12490 12491 12452 12452 
12491 12492 12453 12453 12492 12493 12454 12454 12493 
12494 12455 12455 12494 12495 12456 12456 12495 12496 
12457 12457 12496 12497 12458 12458 12497 12498 12459 
12459 12498 12499 12460 12460 12499 12500 12461 12461 
12500 12501 12462 12462 12501 12502 12463 12463 12502 
12503 12464 12464 12503 12504 12465 12465 12504 12505 
12466 12466 12505 12506 12467 12467 12506 12507 12468 
12468 12507 12508 12469 12469 12508 12509 12470 12470 
12509 12510 12471 12471 12510 12511 12472 12472 12511 
12512 12473 12473 12512 356 357 308 309 12513 
12474 12474 12513 12514 12475 12475 12514 12515 12476 
12476 12515 12516 12477 12477 12516 12517 12478 12478 
12517 12518 12479 12479 12518 12519 12480 12480 12519 
12520 12481 12481 12520 12521 12482 12482 12521 12522 
12483 12483 12522 12523 12484 12484 12523 12524 12485 
12485 12524 12525 12486 12486 12525 12526 12487 12487 
12526 12527 12488 12488 12527 12528 12489 12489 12528 
12529 12490 12490 12529 12530 12491 12491 12530 12531 
12492 12492 12531 12532 12493 12493 12532 12533 12494 
12494 12533 12534 12495 12495 12534 12535 12496 12496 
12535 12536 12497 12497 12536 12537 12498 12498 12537 
12538 12499 12499 12538 12539 12500 12500 12539 12540 
12501 12501 12540 12541 12502 12502 12541 12542 12503 
12503 12542 12543 12504 12504 12543 12544 12505 12505 
12544 12545 12506 12506 12545 12546 12507 12507 12546 
12547 12508 12508 12547 12548 12509 12509 12548 12549 
12510 12510 12549 12550 12511 12511 12550 12551 12512 
12512 12551 355 356 309 310 12552 12513 12513 
12552 12553 12514 12514 12553 12554 12515 12515 12554 
12555 12516 12516 12555 12556 12517 12517 12556 12557 
12518 12518 12557 12558 12519 12519 12558 12559 12520 
12520 12559 12560 12521 12521 12560 12561 12522 12522 
12561 12562 12523 12523 12562 12563 12524 12524 12563 
12564 12525 12525 12564 12565 12526 12526 12565 12566 
12527 12527 12566 12567 12528 12528 12567 12568 12529 
12529 12568 12569 12530 12530 12569 12570 12531 12531 
12570 12571 12532 12532 12571 12572 12533 12533 12572 
12573 12534 12534 12573 12574 12535 12535 12574 12575 
12536 12536 12575 12576 12537 12537 12576 12577 12538 
12538 12577 12578 12539 12539 12578 12579 12540 12540 
12579 12580 12541 12541 12580 12581 12542 12542 12581 
12582 12543 12543 12582 12583 12544 12544 12583 12584 
12545 12545 12584 12585 12546 12546 12585 12586 12547 
12547 12586 12587 12548 12548 12587 12588 12549 12549 
12588 12589 12550 12550 12589 12590 12551 12551 12590 
354 355 310 311 12591 12552 12552 12591 12592 
12553 12553 12592 12593 12554 12554 12593 12594 12555 
12555 12594 12595 12556 12556 12595 12596 12557 12557 
12596 12597 12558 12558 12597 12598 12559 12559 12598 
12599 12560 12560 12599 12600 12561 12561 12600 12601 
12562 12562 12601 12602 12563 12563 12602 12603 12564 
12564 12603 12604 12565 12565 12604 12605 12566 12566 
12605 12606 12567 12567 12606 12607 12568 12568 12607 
12608 12569 12569 12608 12609 12570 12570 12609 12610 
12571 12571 12610 12611 12572 12572 12611 12612 12573 
12573 12612 12613 12574 12574 12613 12614 12575 12575 
12614 12615 12576 12576 12615 12616 12577 12577 12616 
12617 12578 12578 12617 12618 12579 12579 12618 12619 
12580 12580 12619 12620 12581 12581 12620 12621 12582 
12582 12621 12622 12583 12583 12622 12623 12584 12584 
12623 12624 12585 12585 12624 12625 12586 12586 12625 
12626 12587 12587 12626 12627 12588 12588 12627 12628 
12589 12589 12628 12629 12590 12590 12629 353 354 
311 312 12630 12591 12591 12630 12631 12592 12592 
12631 12632 12593 12593 12632 12633 12594 12594 12633 
12634 12595 12595 12634 12635 12596 12596 12635 12636 
12597 12597 12636 12637 12598 12598 12637 12638 12599 
12599 12638 12639 12600 12600 12639 12640 12601 12601 
12640 12641 12602 12602 12641 12642 12603 12603 12642 
12643 12604 12604 12643 12644 12605 12605 12644 12645 
12606 12606 12645 12646 12607 12607 12646 12647 12608 
12608 12647 12648 12609 12609 12648 12649 12610 12610 
12649 12650 12611 12611 12650 12651 12612 12612 12651 
12652 12613 12613 12652 12653 12614 12614 12653 12654 
12615 12615 12654 12655 12616 12616 12655 12656 12617 
12617 12656 12657 12618 12618 12657 12658 12619 12619 
12658 12659 12620 12620 12659 12660 12621 12621 12660 
12661 12622 12622 12661 12662 12623 12623 12662 12663 
12624 12624 12663 12664 12625 12625 12664 12665 12626 
12626 12665 12666 12627 12627 12666 12667 12628 12628 
12667 12668 12629 12629 12668 352 353 312 3 
313 12630 12630 313 314 12631 12631 314 315 
12632 12632 315 316 12633 12633 316 317 12634 
12634 317 318 12635 12635 318 319 12636 12636 
319 320 12637 12637 320 321 12638 12638 321 
322 12639 12639 322 323 12640 12640 323 324 
12641 12641 324 325 12642 12642 325 326 12643 
12643 326 327 12644 12644 327 328 12645 12645 
328 329 12646 12646 329 330 12647 12647 330 
331 12648 12648 331 332 12649 12649 332 333 
12650 12650 333 334 12651 12651 334 335 12652 
12652 335 336 12653 12653 336 337 12654 12654 
337 338 12655 12655 338 339 12656 12656 339 
340 12657 12657 340 341 12658 12658 341 342 
12659 12659 342 343 12660 12660 343 344 12661 
12661 344 345 12662 12662 345 346 12663 12663 
346 347 12664 12664 347 348 12665 12665 348 
349 12666 12666 349 350 12667 12667 350 351 
12668 12668 351 4 352 
CELL_TYPES 12320
9
9
9
9
9
9
9
9
9
9
9
9
9
9
9
9
9
9
9
9
9
9
9
9
9
9
9
9
9
9
9
9
9
9
9
9
9
9
9
9
9
9
9
9
9
9
9
9
9
9
9
9
9
9
9
9
9
9
9
9
9
9
9
9
9
9
9
9
9
9
9
9
9
9
9
9
9
9
9
9
9
9
9
9
9
9
9
9
9
9
9
9
9
9
9
9
9
9
9
9
9
9
9
9
9
9
9
9
9
9
9
9
9
9
9
9
9
9
9
9
9
9
9
9
9
9
9
9
9
9
9
9
9
9
9
9
9
9
9
9
9
9
9
9
9
9
9
9
9
9
9
9
9
9
9
9
9
9
9
9
9
9
9
9
9
9
9
9
9
9
9
9
9
9
9
9
9
9
9
9
9
9
9
9
9
9
9
9
9
9
9
9
9
9
9
9
9
9
9
9
9
9
9
9
9
9
9
9
9
9
9
9
9
9
9
9
9
9
9
9
9
9
9
9
9
9
9
9
9
9
9
9
9
9
9
9
9
9
9
9
9
9
9
9
9
9
9
9
9
9
9
9
9
9
9
9
9
9
9
9
9
9
9
9
9
9
9
9
9
9
9
9
9
9
9
9
9
9
9
9
9
9
9
9
9
9
9
9
9
9
9
9
9
9
9
9
9
9
9
9
9
9
9
9
9
9
9
9
9
9
9
9
9
9
9
9
9
9
9
9
9
9
9
9
9
9
9
9
9
9
9
9
9
9
9
9
9
9
9
9
9
9
9
9
9
9
9
9
9
9
9
9
9
9
9
9
9
9
9
9
9
9
9
9
9
9
9
9
9
9
9
9
9
9
9
9
9
9
9
9
9
9
9
9
9
9
9
9
9
9
9
9
9
9
9
9
9
9
9
9
9
9
9
9
9
9
9
9
9
9
9
9
9
9
9
9
9
9
9
9
9
9
9
9
9
9
9
9
9
9
9
9
9
9
9
9
9
9
9
9
9
9
9
9
9
9
9
9
9
9
9
9
9
9
9
9
9
9
9
9
9
9
9
9
9
9
9
9
9
9
9
9
9
9
9
9
9
9
9
9
9
9
9
9
9
9
9
9
9
9
9
9
9
9
9
9
9
9
9
9
9
9
9
9
9
9
9
9
9
9
9
9
9
9
9
9
9
9
9
9
9
9
9
9
9
9
9
9
9
9
9
9
9
9
9
9
9
9
9
9
9
9
9
9
9
9
9
9
9
9
9
9
9
9
9
9
9
9
9
9
9
9
9
9
9
9
9
9
9
9
9
9
9
9
9
9
9
9
9
9
9
9
9
9
9
9
9
9
9
9
9
9
9
9
9
9
9
9
9
9
9
9
9
9
9
9
9
9
9
9
9
9
9
9
9
9
9
9
9
9
9
9
9
9
9
9
9
9
9
9
9
9
9
9
9
9
9
9
9
9
9
9
9
9
9
9
9
9
9
9
9
9
9
9
9
9
9
9
9
9
9
9
9
9
9
9
9
9
9
9
9
9
9
9
9
9
9
9
9
9
9
9
9
9
9
9
9
9
9
9
9
9
9
9
9
9
9
9
9
9
9
9
9
9
9
9
9
9
9
9
9
9
9
9
9
9
9
9
9
9
9
9
9
9
9
9
9
9
9
9
9
9
9
9
9
9
9
9
9
9
9
9
9
9
9
9
9
9
9
9
9
9
9
9
9
9
9
9
9
9
9
9
9
9
9
9
9
9
9
9
9
9
9
9
9
9
9
9
9
9
9
9
9
9
9
9
9
9
9
9
9
9
9
9
9
9
9
9
9
9
9
9
9
9
9
9
9
9
9
9
9
9
9
9
9
9
9
9
9
9
9
9
9
9
9
9
9
9
9
9
9
9
9
9
9
9
9
9
9
9
9
9
9
9
9
9
9
9
9
9
9
9
9
9
9
9
9
9
9
9
9
9
9
9
9
9
9
9
9
9
9
9
9
9
9
9
9
9
9
9
9
9
9
9
9
9
9
9
9
9
9
9
9
9
9
9
9
9
9
9
9
9
9
9
9
9
9
9
9
9
9
9
9
9
9
9
9
9
9
9
9
9
9
9
9
9
9
9
9
9
9
9
9
9
9
9
9
9
9
9
9
9
9
9
9
9
9
9
9
9
9
9
9
9
9
9
9
9
9
9
9
9
9
9
9
9
9
9
9
9
9
9
9
9
9
9
9
9
9
9
9
9
9
9
9
9
9
9
9
9
9
9
9
9
9
9
9
9
9
9
9
9
9
9
9
9
9
9
9
9
9
9
9
9
9
9
9
9
9
9
9
9
9
9
9
9
9
9
9
9
9
9
9
9
9
9
9
9
9
9
9
9
9
9
9
9
9
9
9
9
9
9
9
9
9
9
9
9
9
9
9
9
9
9
9
9
9
9
9
9
9
9
9
9
9
9
9
9
9
9
9
9
9
9
9
9
9
9
9
9
9
9
9
9
9
9
9
9
9
9
9
9
9
9
9
9
9
9
9
9
9
9
9
9
9
9
9
9
9
9
9
9
9
9
9
9
9
9
9
9
9
9
9
9
9
9
9
9
9
9
9
9
9
9
9
9
9
9
9
9
9
9
9
9
9
9
9
9
9
9
9
9
9
9
9
9
9
9
9
9
9
9
9
9
9
9
9
9
9
9
9
9
9
9
9
9
9
9
9
9
9
9
9
9
9
9
9
9
9
9
9
9
9
9
9
9
9
9
9
9
9
9
9
9
9
9
9
9
9
9
9
9
9
9
9
9
9
9
9
9
9
9
9
9
9
9
9
9
9
9
9
9
9
9
9
9
9
9
9
9
9
9
9
9
9
9
9
9
9
9
9
9
9
9
9
9
9
9
9
9
9
9
9
9
9
9
9
9
9
9
9
9
9
9
9
9
9
9
9
9
9
9
9
9
9
9
9
9
9
9
9
9
9
9
9
9
9
9
9
9
9
9
9
9
9
9
9
9
9
9
9
9
9
9
9
9
9
9
9
9
9
9
9
9
9
9
9
9
9
9
9
9
9
9
9
9
9
9
9
9
9
9
9
9
9
9
9
9
9
9
9
9
9
9
9
9
9
9
9
9
9
9
9
9
9
9
9
9
9
9
9
9
9
9
9
9
9
9
9
9
9
9
9
9
9
9
9
9
9
9
9
9
9
9
9
9
9
9
9
9
9
9
9
9
9
9
9
9
9
9
9
9
9
9
9
9
9
9
9
9
9
9
9
9
9
9
9
9
9
9
9
9
9
9
9
9
9
9
9
9
9
9
9
9
9
9
9
9
9
9
9
9
9
9
9
9
9
9
9
9
9
9
9
9
9
9
9
9
9
9
9
9
9
9
9
9
9
9
9
9
9
9
9
9
9
9
9
9
9
9
9
9
9
9
9
9
9
9
9
9
9
9
9
9
9
9
9
9
9
9
9
9
9
9
9
9
9
9
9
9
9
9
9
9
9
9
9
9
9
9
9
9
9
9
9
9
9
9
9
9
9
9
9
9
9
9
9
9
9
9
9
9
9
9
9
9
9
9
9
9
9
9
9
9
9
9
9
9
9
9
9
9
9
9
9
9
9
9
9
9
9
9
9
9
9
9
9
9
9
9
9
9
9
9
9
9
9
9
9
9
9
9
9
9
9
9
9
9
9
9
9
9
9
9
9
9
9
9
9
9
9
9
9
9
9
9
9
9
9
9
9
9
9
9
9
9
9
9
9
9
9
9
9
9
9
9
9
9
9
9
9
9
9
9
9
9
9
9
9
9
9
9
9
9
9
9
9
9
9
9
9
9
9
9
9
9
9
9
9
9
9
9
9
9
9
9
9
9
9
9
9
9
9
9
9
9
9
9
9
9
9
9
9
9
9
9
9
9
9
9
9
9
9
9
9
9
9
9
9
9
9
9
9
9
9
9
9
9
9
9
9
9
9
9
9
9
9
9
9
9
9
9
9
9
9
9
9
9
9
9
9
9
9
9
9
9
9
9
9
9
9
9
9
9
9
9
9
9
9
9
9
9
9
9
9
9
9
9
9
9
9
9
9
9
9
9
9
9
9
9
9
9
9
9
9
9
9
9
9
9
9
9
9
9
9
9
9
9
9
9
9
9
9
9
9
9
9
9
9
9
9
9
9
9
9
9
9
9
9
9
9
9
9
9
9
9
9
9
9
9
9
9
9
9
9
9
9
9
9
9
9
9
9
9
9
9
9
9
9
9
9
9
9
9
9
9
9
9
9
9
9
9
9
9
9
9
9
9
9
9
9
9
9
9
9
9
9
9
9
9
9
9
9
9
9
9
9
9
9
9
9
9
9
9
9
9
9
9
9
9
9
9
9
9
9
9
9
9
9
9
9
9
9
9
9
9
9
9
9
9
9
9
9
9
9
9
9
9
9
9
9
9
9
9
9
9
9
9
9
9
9
9
9
9
9
9
9
9
9
9
9
9
9
9
9
9
9
9
9
9
9
9
9
9
9
9
9
9
9
9
9
9
9
9
9
9
9
9
9
9
9
9
9
9
9
9
9
9
9
9
9
9
9
9
9
9
9
9
9
9
9
9
9
9
9
9
9
9
9
9
9
9
9
9
9
9
9
9
9
9
9
9
9
9
9
9
9
9
9
9
9
9
9
9
9
9
9
9
9
9
9
9
9
9
9
9
9
9
9
9
9
9
9
9
9
9
9
9
9
9
9
9
9
9
9
9
9
9
9
9
9
9
9
9
9
9
9
9
9
9
9
9
9
9
9
9
9
9
9
9
9
9
9
9
9
9
9
9
9
9
9
9
9
9
9
9
9
9
9
9
9
9
9
9
9
9
9
9
9
9
9
9
9
9
9
9
9
9
9
9
9
9
9
9
9
9
9
9
9
9
9
9
9
9
9
9
9
9
9
9
9
9
9
9
9
9
9
9
9
9
9
9
9
9
9
9
9
9
9
9
9
9
9
9
9
9
9
9
9
9
9
9
9
9
9
9
9
9
9
9
9
9
9
9
9
9
9
9
9
9
9
9
9
9
9
9
9
9
9
9
9
9
9
9
9
9
9
9
9
9
9
9
9
9
9
9
9
9
9
9
9
9
9
9
9
9
9
9
9
9
9
9
9
9
9
9
9
9
9
9
9
9
9
9
9
9
9
9
9
9
9
9
9
9
9
9
9
9
9
9
9
9
9
9
9
9
9
9
9
9
9
9
9
9
9
9
9
9
9
9
9
9
9
9
9
9
9
9
9
9
9
9
9
9
9
9
9
9
9
9
9
9
9
9
9
9
9
9
9
9
9
9
9
9
9
9
9
9
9
9
9
9
9
9
9
9
9
9
9
9
9
9
9
9
9
9
9
9
9
9
9
9
9
9
9
9
9
9
9
9
9
9
9
9
9
9
9
9
9
9
9
9
9
9
9
9
9
9
9
9
9
9
9
9
9
9
9
9
9
9
9
9
9
9
9
9
9
9
9
9
9
9
9
9
9
9
9
9
9
9
9
9
9
9
9
9
9
9
9
9
9
9
9
9
9
9
9
9
9
9
9
9
9
9
9
9
9
9
9
9
9
9
9
9
9
9
9
9
9
9
9
9
9
9
9
9
9
9
9
9
9
9
9
9
9
9
9
9
9
9
9
9
9
9
9
9
9
9
9
9
9
9
9
9
9
9
9
9
9
9
9
9
9
9
9
9
9
9
9
9
9
9
9
9
9
9
9
9
9
9
9
9
9
9
9
9
9
9
9
9
9
9
9
9
9
9
9
9
9
9
9
9
9
9
9
9
9
9
9
9
9
9
9
9
9
9
9
9
9
9
9
9
9
9
9
9
9
9
9
9
9
9
9
9
9
9
9
9
9
9
9
9
9
9
9
9
9
9
9
9
9
9
9
9
9
9
9
9
9
9
9
9
9
9
9
9
9
9
9
9
9
9
9
9
9
9
9
9
9
9
9
9
9
9
9
9
9
9
9
9
9
9
9
9
9
9
9
9
9
9
9
9
9
9
9
9
9
9
9
9
9
9
9
9
9
9
9
9
9
9
9
9
9
9
9
9
9
9
9
9
9
9
9
9
9
9
9
9
9
9
9
9
9
9
9
9
9
9
9
9
9
9
9
9
9
9
9
9
9
9
9
9
9
9
9
9
9
9
9
9
9
9
9
9
9
9
9
9
9
9
9
9
9
9
9
9
9
9
9
9
9
9
9
9
9
9
9
9
9
9
9
9
9
9
9
9
9
9
9
9
9
9
9
9
9
9
9
9
9
9
9
9
9
9
9
9
9
9
9
9
9
9
9
9
9
9
9
9
9
9
9
9
9
9
9
9
9
9
9
9
9
9
9
9
9
9
9
9
9
9
9
9
9
9
9
9
9
9
9
9
9
9
9
9
9
9
9
9
9
9
9
9
9
9
9
9
9
9
9
9
9
9
9
9
9
9
9
9
9
9
9
9
9
9
9
9
9
9
9
9
9
9
9
9
9
9
9
9
9
9
9
9
9
9
9
9
9
9
9
9
9
9
9
9
9
9
9
9
9
9
9
9
9
9
9
9
9
9
9
9
9
9
9
9
9
9
9
9
9
9
9
9
9
9
9
9
9
9
9
9
9
9
9
9
9
9
9
9
9
9
9
9
9
9
9
9
9
9
9
9
9
9
9
9
9
9
9
9
9
9
9
9
9
9
9
9
9
9
9
9
9
9
9
9
9
9
9
9
9
9
9
9
9
9
9
9
9
9
9
9
9
9
9
9
9
9
9
9
9
9
9
9
9
9
9
9
9
9
9
9
9
9
9
9
9
9
9
9
9
9
9
9
9
9
9
9
9
9
9
9
9
9
9
9
9
9
9
9
9
9
9
9
9
9
9
9
9
9
9
9
9
9
9
9
9
9
9
9
9
9
9
9
9
9
9
9
9
9
9
9
9
9
9
9
9
9
9
9
9
9
9
9
9
9
9
9
9
9
9
9
9
9
9
9
9
9
9
9
9
9
9
9
9
9
9
9
9
9
9
9
9
9
9
9
9
9
9
9
9
9
9
9
9
9
9
9
9
9
9
9
9
9
9
9
9
9
9
9
9
9
9
9
9
9
9
9
9
9
9
9
9
9
9
9
9
9
9
9
9
9
9
9
9
9
9
9
9
9
9
9
9
9
9
9
9
9
9
9
9
9
9
9
9
9
9
9
9
9
9
9
9
9
9
9
9
9
9
9
9
9
9
9
9
9
9
9
9
9
9
9
9
9
9
9
9
9
9
9
9
9
9
9
9
9
9
9
9
9
9
9
9
9
9
9
9
9
9
9
9
9
9
9
9
9
9
9
9
9
9
9
9
9
9
9
9
9
9
9
9
9
9
9
9
9
9
9
9
9
9
9
9
9
9
9
9
9
9
9
9
9
9
9
9
9
9
9
9
9
9
9
9
9
9
9
9
9
9
9
9
9
9
9
9
9
9
9
9
9
9
9
9
9
9
9
9
9
9
9
9
9
9
9
9
9
9
9
9
9
9
9
9
9
9
9
9
9
9
9
9
9
9
9
9
9
9
9
9
9
9
9
9
9
9
9
9
9
9
9
9
9
9
9
9
9
9
9
9
9
9
9
9
9
9
9
9
9
9
9
9
9
9
9
9
9
9
9
9
9
9
9
9
9
9
9
9
9
9
9
9
9
9
9
9
9
9
9
9
9
9
9
9
9
9
9
9
9
9
9
9
9
9
9
9
9
9
9
9
9
9
9
9
9
9
9
9
9
9
9
9
9
9
9
9
9
9
9
9
9
9
9
9
9
9
9
9
9
9
9
9
9
9
9
9
9
9
9
9
9
9
9
9
9
9
9
9
9
9
9
9
9
9
9
9
9
9
9
9
9
9
9
9
9
9
9
9
9
9
9
9
9
9
9
9
9
9
9
9
9
9
9
9
9
9
9
9
9
9
9
9
9
9
9
9
9
9
9
9
9
9
9
9
9
9
9
9
9
9
9
9
9
9
9
9
9
9
9
9
9
9
9
9
9
9
9
9
9
9
9
9
9
9
9
9
9
9
9
9
9
9
9
9
9
9
9
9
9
9
9
9
9
9
9
9
9
9
9
9
9
9
9
9
9
9
9
9
9
9
9
9
9
9
9
9
9
9
9
9
9
9
9
9
9
9
9
9
9
9
9
9
9
9
9
9
9
9
9
9
9
9
9
9
9
9
9
9
9
9
9
9
9
9
9
9
9
9
9
9
9
9
9
9
9
9
9
9
9
9
9
9
9
9
9
9
9
9
9
9
9
9
9
9
9
9
9
9
9
9
9
9
9
9
9
9
9
9
9
9
9
9
9
9
9
9
9
9
9
9
9
9
9
9
9
9
9
9
9
9
9
9
9
9
9
9
9
9
9
9
9
9
9
9
9
9
9
9
9
9
9
9
9
9
9
9
9
9
9
9
9
9
9
9
9
9
9
9
9
9
9
9
9
9
9
9
9
9
9
9
9
9
9
9
9
9
9
9
9
9
9
9
9
9
9
9
9
9
9
9
9
9
9
9
9
9
9
9
9
9
9
9
9
9
9
9
9
9
9
9
9
9
9
9
9
9
9
9
9
9
9
9
9
9
9
9
9
9
9
9
9
9
9
9
9
9
9
9
9
9
9
9
9
9
9
9
9
9
9
9
9
9
9
9
9
9
9
9
9
9
9
9
9
9
9
9
9
9
9
9
9
9
9
9
9
9
9
9
9
9
9
9
9
9
9
9
9
9
9
9
9
9
9
9
9
9
9
9
9
9
9
9
9
9
9
9
9
9
9
9
9
9
9
9
9
9
9
9
9
9
9
9
9
9
9
9
9
9
9
9
9
9
9
9
9
9
9
9
9
9
9
9
9
9
9
9
9
9
9
9
9
9
9
9
9
9
9
9
9
9
9
9
9
9
9
9
9
9
9
9
9
9
9
9
9
9
9
9
9
9
9
9
9
9
9
9
9
9
9
9
9
9
9
9
9
9
9
9
9
9
9
9
9
9
9
9
9
9
9
9
9
9
9
9
9
9
9
9
9
9
9
9
9
9
9
9
9
9
9
9
9
9
9
9
9
9
9
9
9
9
9
9
9
9
9
9
9
9
9
9
9
9
9
9
9
9
9
9
9
9
9
9
9
9
9
9
9
9
9
9
9
9
9
9
9
9
9
9
9
9
9
9
9
9
9
9
9
9
9
9
9
9
9
9
9
9
9
9
9
9
9
9
9
9
9
9
9
9
9
9
9
9
9
9
9
9
9
9
9
9
9
9
9
9
9
9
9
9
9
9
9
9
9
9
9
9
9
9
9
9
9
9
9
9
9
9
9
9
9
9
9
9
9
9
9
9
9
9
9
9
9
9
9
9
9
9
9
9
9
9
9
9
9
9
9
9
9
9
9
9
9
9
9
9
9
9
9
9
9
9
9
9
9
9
9
9
9
9
9
9
9
9
9
9
9
9
9
9
9
9
9
9
9
9
9
9
9
9
9
9
9
9
9
9
9
9
9
9
9
9
9
9
9
9
9
9
9
9
9
9
9
9
9
9
9
9
9
9
9
9
9
9
9
9
9
9
9
9
9
9
9
9
9
9
9
9
9
9
9
9
9
9
9
9
9
9
9
9
9
9
9
9
9
9
9
9
9
9
9
9
9
9
9
9
9
9
9
9
9
9
9
9
9
9
9
9
9
9
9
9
9
9
9
9
9
9
9
9
9
9
9
9
9
9
9
9
9
9
9
9
9
9
9
9
9
9
9
9
9
9
9
9
9
9
9
9
9
9
9
9
9
9
9
9
9
9
9
9
9
9
9
9
9
9
9
9
9
9
9
9
9
9
9
9
9
9
9
9
9
9
9
9
9
9
9
9
9
9
9
9
9
9
9
9
9
9
9
9
9
9
9
9
9
9
9
9
9
9
9
9
9
9
9
9
9
9
9
9
9
9
9
9
9
9
9
9
9
9
9
9
9
9
9
9
9
9
9
9
9
9
9
9
9
9
9
9
9
9
9
9
9
9
9
9
9
9
9
9
9
9
9
9
9
9
9
9
9
9
9
9
9
9
9
9
9
9
9
9
9
9
9
9
9
9
9
9
9
9
9
9
9
9
9
9
9
9
9
9
9
9
9
9
9
9
9
9
9
9
9
9
9
9
9
9
9
9
9
9
9
9
9
9
9
9
9
9
9
9
9
9
9
9
9
9
9
9
9
9
9
9
9
9
9
9
9
9
9
9
9
9
9
9
9
9
9
9
9
9
9
9
9
9
9
9
9
9
9
9
9
9
9
9
9
9
9
9
9
9
9
9
9
9
9
9
9
9
9
9
9
9
9
9
9
9
9
9
9
9
9
9
9
9
9
9
9
9
9
9
9
9
9
9
9
9
9
9
9
9
9
9
9
9
9
9
9
9
9
9
9
9
9
9
9
9
9
9
9
9
9
9
9
9
9
9
9
9
9
9
9
9
9
9
9
9
9
9
9
9
9
9
9
9
9
9
9
9
9
9
9
9
9
9
9
9
9
9
9
9
9
9
9
9
9
9
9
9
9
9
9
9
9
9
9
9
9
9
9
9
9
9
9
9
9
9
9
9
9
9
9
9
9
9
9
9
9
9
9
9
9
9
9
9
9
9
9
9
9
9
9
9
9
9
9
9
9
9
9
9
9
9
9
9
9
9
9
9
9
9
9
9
9
9
9
9
9
9
9
9
9
9
9
9
9
9
9
9
9
9
9
9
9
9
9
9
9
9
9
9
9
9
9
9
9
9
9
9
9
9
9
9
9
9
9
9
9
9
9
9
9
9
9
9
9
9
9
9
9
9
9
9
9
9
9
9
9
9
9
9
9
9
9
9
9
9
9
9
9
9
9
9
9
9
9
9
9
9
9
9
9
9
9
9
9
9
9
9
9
9
9
9
9
9
9
9
9
9
9
9
9
9
9
9
9
9
9
9
9
9
9
9
9
9
9
9
9
9
9
9
9
9
9
9
9
9
9
9
9
9
9
9
9
9
9
9
9
9
9
9
9
9
9
9
9
9
9
9
9
9
9
9
9
9
9
9
9
9
9
9
9
9
9
9
9
9
9
9
9
9
9
9
9
9
9
9
9
9
9
9
9
9
9
9
9
9
9
9
9
9
9
9
9
9
9
9
9
9
9
9
9
9
9
9
9
9
9
9
9
9
9
9
9
9
9
9
9
9
9
9
9
9
9
9
9
9
9
9
9
9
9
9
9
9
9
9
9
9
9
9
9
9
9
9
9
9
9
9
9
9
9
9
9
9
9
9
9
9
9
9
9
9
9
9
9
9
9
9
9
9
9
9
9
9
9
9
9
9
9
9
9
9
9
9
9
9
9
9
9
9
9
9
9
9
9
9
9
9
9
9
9
9
9
9
9
9
9
9
9
9
9
9
9
9
9
9
9
9
9
9
9
9
9
9
9
9
9
9
9
9
9
9
9
9
9
9
9
9
9
9
9
9
9
9
9
9
9
9
9
9
9
9
9
9
9
9
9
9
9
9
9
9
9
9
9
9
9
9
9
9
9
9
9
9
9
9
9
9
9
9
9
9
9
9
9
9
9
9
9
9
9
9
9
9
9
9
9
9
9
9
9
9
9
9
9
9
9
9
9
9
9
9
9
9
9
9
9
9
9
9
9
9
9
9
9
9
9
9
9
9
9
9
9
9
9
9
9
9
9
9
9
9
9
9
9
9
9
9
9
9
9
9
9
9
9
9
9
9
9
9
9
9
9
9
9
9
9
9
9
9
9
9
9
9
9
9
9
9
9
9
9
9
9
9
9
9
9
9
9
9
9
9
9
9
9
9
9
9
9
9
9
9
9
9
9
9
9
9
9
9
9
9
9
9
9
9
9
9
9
9
9
9
9
9
9
9
9
9
9
9
9
9
9
9
9
9
9
9
9
9
9
9
9
9
9
9
9
9
9
9
9
9
9
9
9
9
9
9
9
9
9
9
9
9
9
9
9
9
9
9
9
9
9
9
9
9
9
9
9
9
9
9
9
9
9
9
9
9
9
9
9
9
9
9
9
9
9
9
9
9
9
9
9
9
9
9
9
9
9
9
9
9
9
9
9
9
9
9
9
9
9
9
9
9
9
9
9
9
9
9
9
9
9
9
9
9
9
9
9
9
9
9
9
9
9
9
9
9
9
9
9
9
9
9
9
9
9
9
9
9
9
9
9
9
9
9
9
9
9
9
9
9
9
9
9
9
9
9
9
9
9
9
9
9
9
9
9
9
9
9
9
9
9
9
9
9
9
9
9
9
9
9
9
9
9
9
9
9
9
9
9
9
9
9
9
9
9
9
9
9
9
9
9
9
9
9
9
9
9
9
9
9
9
9
9
9
9
9
9
9
9
9
9
9
9
9
9
9
9
9
9
9
9
9
9
9
9
9
9
9
9
9
9
9
9
9
9
9
9
9
9
9
9
9
9
9
9
9
9
9
9
9
9
9
9
9
9
9
9
9
9
9
9
9
9
9
9
9
9
9
9
9
9
9
9
9
9
9
9
9
9
9
9
9
9
9
9
9
9
9
9
9
9
9
9
9
9
9
9
9
9
9
9
9
9
9
9
9
9
9
9
9
9
9
9
9
9
9
9
9
9
9
9
9
9
9
9
9
9
9
9
9
9
9
9
9
9
9
9
9
9
9
9
9
9
9
9
9
9
9
9
9
9
9
9
9
9
9
9
9
9
9
9
9
9
9
9
9
9
9
9
9
9
9
9
9
9
9
9
9
9
9
9
9
9
9
9
9
9
9
9
9
9
9
9
9
9
9
9
9
9
9
9
9
9
9
9
9
9
9
9
9
9
9
9
9
9
9
9
9
9
9
9
9
9
9
9
9
9
9
9
9
9
9
9
9
9
9
9
9
9
9
9
9
9
9
9
9
9
9
9
9
9
9
9
9
9
9
9
9
9
9
9
9
9
9
9
9
9
9
9
9
9
9
9
9
9
9
9
9
9
9
9
9
9
9
9
9
9
9
9
9
9
9
9
9
9
9
9
9
9
9
9
9
9
9
9
9
9
9
9
9
9
9
9
9
9
9
9
9
9
9
9
9
9
9
9
9
9
9
9
9
9
9
9
9
9
9
9
9
9
9
9
9
9
9
9
9
9
9
9
9
9
9
9
9
9
9
9
9
9
9
9
9
9
9
9
9
9
9
9
9
9
9
9
9
9
9
9
9
9
9
9
9
9
9
9
9
9
9
9
9
9
9
9
9
9
9
9
9
9
9
9
9
9
9
9
9
9
9
9
9
9
9
9
9
9
9
9
9
9
9
9
9
9
9
9
9
9
9
9
9
9
9
9
9
9
9
9
9
9
9
9
9
9
9
9
9
9
9
9
9
9
9
9
9
9
9
9
9
9
9
9
9
9
9
9
9
9
9
9
9
9
9
9
9
9
9
9
9
9
9
9
9
9
9
9
9
9
9
9
9
9
9
9
9
9
9
9
9
9
9
9
9
9
9
9
9
9
9
9
9
9
9
9
9
9
9
9
9
9
9
9
9
9
9
9
9
9
9
9
9
9
9
9
9
9
9
9
9
9
9
9
9
9
9
9
9
9
9
9
9
9
9
9
9
9
9
9
9
9
9
9
9
9
9
9
9
9
9
9
9
9
9
9
9
9
9
9
9
9
9
9
9
9
9
9
9
9
9
9
9
9
9
9
9
9
9
9
9
9
9
9
9
9
9
9
9
9
9
9
9
9
9
9
9
9
9
9
9
9
9
9
9
9
9
9
9
9
9
9
9
9
9
9
9
9
9
9
9
9
9
9
9
9
9
9
9
9
9
9
9
9
9
9
9
9
9
9
9
9
9
9
9
9
9
9
9
9
9
9
9
9
9
9
9
9
9
9
9
9
9
9
9
9
9
9
9
9
9
9
9
9
9
9
9
9
9
9
9
9
9
9
9
9
9
9
9
9
9
9
9
9
9
9
9
9
9
9
9
9
9
9
9
9
9
9
9
9
9
9
9
9
9
9
9
9
9
9
9
9
9
9
9
9
9
9
9
9
9
9
9
9
9
9
9
9
9
9
9
9
9
9
9
9
9
9
9
9
9
9
9
9
9
9
9
9
9
9
9
9
9
9
9
9
9
9
9
9
9
9
9
9
9
9
9
9
9
9
9
9
9
9
9
9
9
9
9
9
9
9
9
9
9
9
9
9
9
9
9
9
9
9
9
9
9
9
9
9
9
9
9
9
9
9
9
9
9
9
9
9
9
9
9
9
9
9
9
9
9
9
9
9
9
9
9
9
9
9
9
9
9
9
9
9
9
9
9
9
9
9
9
9
9
9
9
9
9
9
9
9
9
9
9
9
9
9
9
9
9
9
9
9
9
9
9
9
9
9
9
9
9
9
9
9
9
9
9
9
9
9
9
9
9
9
9
9
9
9
9
9
9
9
9
9
9
9
9
9
9
9
9
9
9
9
9
9
9
9
9
9
9
9
9
9
9
9
9
9
9
9
9
9
9
9
9
9
9
9
9
9
9
9
9
9
9
9
9
9
9
9
9
9
9
9
9
9
9
9
9
9
9
9
9
9
9
9
9
9
9
9
9
9
9
9
9
9
9
9
9
9
9
9
9
9
9
9
9
9
9
9
9
9
9
9
9
9
9
9
9
9
9
9
9
9
9
9
9
9
9
9
9
9
9
9
9
9
9
9
9
9
9
9
9
9
9
9
9
9
9
9
9
9
9
9
9
9
9
9
9
9
9
9
9
9
9
9
9
9
9
9
9
9
9
9
9
9
9
9
9
9
9
9
9
9
9
9
9
9
9
9
9
9
9
9
9
9
9
9
9
9
9
9
9
9
9
9
9
9
9
9
9
9
9
9
9
9
9
9
9
9
9
9
9
9
9
9
9
9
9
9
9
9
9
9
9
9
9
9
9
9
9
9
9
9
9
9
9
9
9
9
9
9
9
9
9
9
9
9
9
9
9
9
9
9
9
9
9
9
9
9
9
9
9
9
9
9
9
9
9
9
9
9
9
9
9
9
9
9
9
9
9
9
9
9
9
9
9
9
9
9
9
9
9
9
9
9
9
9
9
9
9
9
9
9
9
9
9
9
9
9
9
9
9
9
9
9
9
9
9
9
9
9
9
9
9
9
9
9
9
9
9
9
9
9
9
9
9
9
9
9
9
9
9
9
9
9
9
9
9
9
9
9
9
9
9
9
9
9
9
9
9
9
9
9
9
9
9
9
9
9
9
9
9
9
9
9
9
9
9
9
9
9
9
9
9
9
9
9
9
9
9
9
9
9
9
9
9
9
9
9
9
9
9
9
9
9
9
9
9
9
9
9
9
9
9
9
9
9
9
9
9
9
9
9
9
9
9
9
9
9
9
9
9
9
9
9
9
9
9
9
9
9
9
9
9
9
9
9
9
9
9
9
9
9
9
9
9
9
9
9
9
9
9
9
9
9
9
9
9
9
9
9
9
9
9
9
9
9
9
9
9
9
9
9
9
9
9
9
9
9
9
9
9
9
9
9
9
9
9
9
9
9
9
9
9
9
9
9
9
9
9
9
9
9
9
9
9
9
9
9
9
9
9
9
9
9
9
9
9
9
9
9
9
9
9
9
9
9
9
9
9
9
9
9
9
9
9
9
9
9
9
9
9
9
9
9
9
9
9
9
9
9
9
9
9
9
9
9
9
9
9
9
9
9
9
9
9
9
9
9
9
9
9
9
9
9
9
9
9
9
9
9
9
9
9
9
9
9
9
9
9
9
9
9
9
9
9
9
9
9
9
9
9
9
9
9
9
9
9
9
9
9
9
9
9
9
9
9
9
9
9
9
9
9
9
9
9
9
9
9
9
9
9
9
9
9
9
9
9
9
9
9
9
9
9
9
9
9
9
9
9
9
9
9
9
9
9
9
9
9
9
9
9
9
9
9
9
9
9
9
9
9
9
9
9
9
9
9
9
9
9
9
9
9
9
9
9
9
9
9
9
9
9
9
9
9
9
9
9
9
9
9
9
9
9
9
9
9
9
9
9
9
9
9
9
9
9
9
9
9
9
9
9
9
9
9
9
9
9
9
9
9
9
9
9
9
9
9
9
9
9
9
9
9
9
9
9
9
9
9
9
9
9
9
9
9
9
9
9
9
9
9
9
9
9
9
9
9
9
9
9
9
9
9
9
9
9
9
9
9
9
9
9
9
9
9
9
9
9
9
9
9
9
9
9
9
9
9
9
9
9
9
9
9
9
9
9
9
9
9
9
9
9
9
9
9
9
9
9
9
9
9
9
9
9
9
9
9
9
9
9
9
9
9
9
9
9
9
9
9
9
9
9
9
9
9
9
9
9
9
9
9
9
9
9
9
9
9
9
9
9
9
9
9
9
9
9
9
9
9
9
9
9
9
9
9
9
9
9
9
9
9
9
9
9
9
9
9
9
9
9
9
9
9
9
9
9
9
9
9
9
9
9
9
9
9
9
9
9
9
9
9
9
9
9
9
9
9
9
9
9
9
9
9
9
9
9
9
9
9
9
9
9
9
9
9
9
9
9
9
9
9
9
9
9
9
9
9
9
9
9
9
9
9
9
9
9
9
9
9
9
9
9
9
9
9
9
9
9
9
9
9
9
9
9
9
9
9
9
9
9
9
9
9
9
9
9
9
9
9
9
9
9
9
9
9
9
9
9
9
9
9
9
9
9
9
9
9
9
9
9
9
9
9
9
9
9
9
9
9
9
9
9
9
9
9
9
9
9
9
9
9
9
9
9
9
9
9
9
9
9
9
9
9
9
9
9
9
9
9
9
9
9
9
9
9
9
9
9
9
9
9
9
9
9
9
9
9
9
9
9
9
9
9
9
9
9
9
9
9
9
9
9
9
9
9
9
9
9
9
9
9
9
9
9
9
9
9
9
9
9
9
9
9
9
9
9
9
9
9
9
9
9
9
9
9
9
9
9
9
9
9
9
9
9
9
9
9
9
9
9
9
9
9
9
9
9
9
9
9
9
9
9
9
9
9
9
9
9
9
9
9
9
9
9
9
9
9
9
9
9
9
9
9
9
9
9
9
9
9
9
9
9
9
9
9
9
9
9
9
9
9
9
9
9
9
9
9
9
9
9
9
9
9
9
9
9
9
9
9
9
9
9
9
9
9
9
9
9
9
9
9
9
9
9
9
9
9
9
9
9
9
9
9
9
9
9
9
9
9
9
9
9
9
9
9
9
9
9
9
9
9
9
9
9
9
9
9
9
9
9
9
9
9
9
9
9
9
9
9
9
9
9
9
9
9
9
9
9
9
9
9
9
9
9
9
9
9
9
9
9
9
9
9
9
9
9
9
9
9
9
9
9
9
9
9
9
9
9
9
9
9
9
9
9
9
9
9
9
9
9
9
9
9
9
9
9
9
9
9
9
9
9
9
9
9
9
9
9
9
9
9
9
9
9
9
9
9
9
9
9
9
9
9
9
9
9
9
9
9
9
9
9
9
9
9
9
9
9
9
9
9
9
9
9
9
9
9
9
9
9
9
9
9
9
9
9
9
9
9
9
9
9
9
9
9
9
9
9
9
9
9
9
9
9
9
9
9
9
9
9
9
9
9
9
9
9
9
9
9
9
9
9
9
9
9
9
9
9
9
9
9
9
9
9
9
9
9
9
9
9
9
9
9
9
9
9
9
9
9
9
9
9
9
9
9
9
9
9
9
9
9
9
9
9
9
9
9
9
9
9
9
9
9
9
9
9
9
9
9
9
9
9
9
9
9
9
9
9
9
9
9
9
9
9
9
9
9
9
9
9
9
9
9
9
9
9
9
9
9
9
9
9
9
9
9
9
9
9
9
9
9
9
9
9
9
9
9
9
9
9
9
9
9
9
9
9
9
9
9
9
9
9
9
9
9
9
9
9
9
9
9
9
9
9
9
9
9
9
9
9
9
9
9
9
9
9
9
9
9
9
9
9
9
9
9
9
9
9
9
9
9
9
9
9
9
9
9
9
9
9
9
9
9
9
9
9
9
9
9
9
9
9
9
9
9
9
9
9
9
9
9
9
9
9
9
9
9
9
9
9
9
9
9
9
9
9
9
9
9
9
9
9
9
9
9
9
9
9
9
9
9
9
9
9
9
9
9
9
9
9
9
9
9
9
9
9
9
9
9
9
9
9
9
9
9
9
9
9
9
9
9
9
9
9
9
9
9
9
9
9
9
9
9
9
9
9
9
9
9
9
9
9
9
9
9
9
9
9
9
9
9
9
9
9
9
9
9
9
9
9
9
9
9
9
9
9
9
9
9
9
9
9
9
9
9
9
9
9
9
9
9
9
9
9
9
9
9
9
9
9
9
9
9
9
9
9
9
9
9
9
9
9
9
9
9
9
9
9
9
9
9
9
9
9
9
9
9
9
9
9
9
9
9
9
9
9
9
9
9
9
9
9
9
9
9
9
9
9
9
9
9
9
9
9
9
9
9
9
9
9
9
9
9
9
9
9
9
9
9
9
9
9
9
9
9
9
9
9
9
9
9
9
9
9
9
9
9
9
9
9
9
9
9
9
9
9
9
9
9
9
9
9
9
9
9
9
9
9
9
9
9
9
9
9
9
9
9
9
9
9
9
9
9
9
9
9
9
9
9
9
9
9
9
9
9
9
9
9
9
9
9
9
9
9
9
9
9
9
9
9
9
9
9
9
9
9
9
9
9
9
9
9
9
9
9
9
9
9
9
9
9
9
9
9
9
9
9
9
9
9
9
9
9
9
9
9
9
9
9
9
9
9
9
9
9
9
9
9
9
9
9
9
9
9
9
9
9
9
9
9
9
9
9
9
9
9
9
9
9
9
9
9
9
9
9
9
9
9
9
9
9
9
9
9
9
9
9
9
9
9
9
9
9
9
9
9
9
9
9
9
9
9
9
9
9
9
9
9
9
9
9
9
9
9
9
9
9
9
9
9
9
9
9
9
9
9
9
9
9
9
9
9
9
9
9
9
9
9
9
9
9
9
9
9
9
9
9
9
9
9
9
9
9
9
9
9
9
9
9
9
9
9
9
9
9
9
9
9
9
9
9
9
9
9
9
9
9
9
9
9
9
9
9
9
9
9
9
9
9
9
9
9
9
9
9
9
9
9
9
9
9
9
9
9
9
9
9
9
9
9
9
9
9
9
9
9
9
9
9
9
9
9
9
9
9
9
9
9
9
9
9
9
9
9
9
9
9
9
9
9
9
9
9
9
9
9
9
9
9
9
9
9
9
9
9
9
9
9
9
9
9
9
9
9
9
9
9
9
9
9
9
9
9
9
9
9
9
9
9
9
9
9
9
9
9
9
9
9
9
9
9
9
9
9
9
9
9
9
9
9
9
9
9
9
9
9
9
9
9
9
9
9
9
9
9
9
9
9
9
9
9
9
9
9
9
9
9
9
9
9
9
9
9
9
9
9
9
9
9
9
9
9
9
9
9
9
9
9
9
9
9
9
9
9
9
9
9
9
9
9
9
9
9
9
9
9
9
9
9
9
9
9
9
9
9
9
9
9
9
9
9
9
9
9
9
9
9
9
9
9
9
9
9
9
9
9
9
9
9
9
9
9
9
9
9
9
9
9
9
9
9
9
9
9
9
9
9
9
9
9
9
9
9
9
9
9
9
9
9
9
9
9
9
9
9
9
9
9
9
9
9
9
9
9
9
9
9
9
9
9
9
9
9
9
9
9
9
9
9
9
9
9
9
9
9
9
9
9
9
9
9
9
9
9
9
9
9
9
9
9
9
9
9
9
9
9
9
9
9
9
9
9
9
9
9
9
9
9
9
9
9
9
9
9
9
9
9
9
9
9
9
9
9
9
9
9
9
9
9
9
9
9
9
9
9
9
9
9
9
9
9
9
9
9
9
9
9
9
9
9
9
9
9
9
9
9
9
9
9
9
9
9
9
9
9
9
9
9
9
9
9
9
9
9
9
9
9
9
9
9
9
9
9
9
9
9
9
9
9
9
9
9
9
9
9
9
9
9
9
9
9
9
9
9
9
9
9
9
9
9
9
9
9
9
9
9
9
9
9
9
9
9
9
9
9
9
9
9
9
9
9
9
9
9
9
9
9
9
9
9
9
9
9
9
9
9
9
9
9
9
9
9
9
9
9
9
9
9
9
9
9
9
9
9
9
9
9
9
9
9
9
9
9
9
9
9
9
9
9
9
9
9
9
9
9
9
9
9
9
9
9
9
9
9
9
9
9
9
9
9
9
9
9
9
9
9
9
9
9
9
9
9
9
9
9
9
9
9
9
9
9
9
9
9
9
9
9
9
9
9
9
9
9
9
9
9
9
9
9
9
9
9
9
9
9
9
9
9
9
9
9
9
9
9
9
9
9
9
9
9
9
9
9
9
9
9
9
9
9
9
9
9
9
9
9
9
9
9
9
9
9
9
9
9
9
9
9
9
9
9
9
9
9
9
9
9
9
9
9
9
9
9
9
9
9
9
9
9
9
9
9
9
9
9
9
9
9
9
9
9
9
9
9
9
9
9
9
9
9
9
9
9
9
9
9
9
9
9
9
9
9
9
9
9
9
9
9
9
9
9
9
9
9
9
9
9
9
9
9
9
9
9
9
9
9
9
9
9
9
9
9
9
9
9
9
9
9
9
9
9
9
9
9
9
9
9
9
9
9
9
9
9
9
9
9
9
9
9
9
9
9
9
9
9
9
9
9
9
9
9
9
9
9
9
9
9
9
9
9
9
9
9
9
9
9
9
9
9
9
9
9
9
9
9
9
9
9
9
9
9
9
9
9
9
9
9
9
9
9
9
9
9
9
9
9
9
9
9
9
9
9
9
9
9
9
9
9
9
9
9
9
9
9
9
9
9
9
9
9
9
9
9
9
9
9
9
9
9
9
9
9
9
9
9
9
9
9
9
9
9
9
9
9
9
9
9
9
9
9
9
9
9
9
9
9
9
9
9
9
9
9
9
9
9
9
9
9
9
9
9
9
9
9
9
9
9
9
9
9
9
9
9
9
9
9
9
9
9
9
9
9
9
9
9
9
9
9
9
9
9
9
9
9
9
9
9
9
9
9
9
9
9
9
9
9
9
9
9
9
9
9
9
9
9
9
9
9
9
9
9
9
9
9
9
9
9
9
9
9
9
9
9
9
9
9
9
9
9
9
9
9
9
9
9
9
9
9
9
9
9
9
9
9
9
9
9
9
9
9
9
9
9
9
9
9
9
9
9
9
9
9
9
9
9
9
9
9
9
9
9
9
9
9
9
9
9
9
9
9
9
9
9
9
9
9
9
9
9
9
9
9
9
9
9
9
9
9
9
9
9
9
9
9
9
9
9
9
9
9
9
9
9
9
9
9
9
9
9
9
9
9
9
9
9
9
9
9
9
9
9
9
9
9
9
9
9
9
9
9
9
9
9
9
9
9
9
9
9
9
9
9
9
9
9
9
9
9
9
9
9
9
9
9
9
9
9
9
9
9
9
9
9
9
9
9
9
9
9
9
9
9
9
9
9
9
9
9
9
9
9
9
9
9
9
9
9
9
9
9
9
9
9
9
9
9
9
9
9
9
9
9
9
9
9
9
9
9
9
9
9
9
9
9
9
9
9
9
9
9
9
9
9
9
9
9
9
9
9
9
9
9
9
9
9
9
9
9
9
9
9
9
9
9
9
9
9
9
9
9
9
9
9
9
9
9
9
9
9
9
9
9
9
9
9
9
9
9
9
9
9
9
9
9
9
9
9
9
9
9
9
9
9
9
9
9
9
9
9
9
9
9
9
9
9
9
9
9
9
9
9
9
9
9
9
9
9
9
9
9
9
9
9
9
9
9
9
9
9
9
9
9
9
9
9
9
9
9
9
9
9
9
9
9
9
9
9
9
9
9
9
9
9
9
9
9
9
9
9
9
9
9
9
9
9
9
9
9
9
9
9
9
9
9
9
9
9
9
9
9
9
9
9
9
9
9
9
9
9
9
9
9
9
9
9
9
9
9
9
9
9
9
9
9
9
9
9
9
9
9
9
9
9
9
9
9
9
9
9
9
9
9
9
9
9
9
9
9
9
9
9
9
9
9
9
9
9
9
9
9
9
9
9
9
9
9
9
9
9
9
9
9
9
9
9
9
9
9
9
9
9
9
9
9
9
9
9
9
9
9
9
9
9
9
9
9
9
9
9
9
9
9
9
9
9
9
9
9
9
9
9
9
9
9
9
9
9
9
9
9
9
9
9
9
9
9
9
9
9
9
9
9
9
9
9
9
9
9
9
9
9
9
9
9
9
9
9
9
9
9
9
9
9
9
9
9
9
9
9
9
9
9
9
9
9
9
9
9
9
9
9
9
9
9
9
9
9
9
9
9
9
9
9
9
9
9
9
9
9
9
9
9
9
9
9
9
9
9
9
9
9
9
9
9
9
9
9
9
9
9
9
9
9
9
9
9
9
9
9
9
9
9
9
9
9
9
9
9
9
9
9
9
9
9
9
9
9
9
9
9
9
9
9
9
9
9
9
9
9
9
9
9
9
9
9
9
9
9
9
9
9
9
9
9
9
9
9
9
9
9
9
9
9
9
9
9
9
9
9
9
9
9
9
9
9
9
9
9
9
9
9
9
9
9
9
9
9
9
9
9
9
9
9
9
9
9
9
9
9
9
9
9
9
9
9
9
9
9
9
9
9
9
9
9
9
9
9
9
9
9
9
9
9
9
9
9
9
9
9
9
9
9
9
9
9
9
9
9
9
9
9
9
9
9
9
9
9
9
9
9
9
9
9
9
9
9
9
9
9
9
9
9
9
9
9
9
9
9
9
9
9
9
9
9
9
9
9
9
9
9
9
9
9
9
9
9
9
9
9
9
9
9
9
9
9
9
9
9
9
9
9
9
9
9
9
9
9
9
9
9
9
9
9
9
9
9
9
9
9
9
9
9
9
9
9
9
9
9
9
9
9
9
9
9
9
9
9
9
9
9
9
9
9
9
9
9
9
9
9
9
9
9
9
9
9
9
9
9
9
9
9
9
9
9
9
9
9
9
9
9
9
9
9
9
9
9
9
9
9
9
9
9
9
9
9
9
9
9
9
9
9
9
9
9
9
9
9
9
9
9
9
9
9
9
9
9
9
9
9
9
9
9
9
9
9
9
9
9
9
9
9
9
9
9
9
9
9
9
9
9
9
9
9
9
9
9
9
9
9
9
9
9
9
9
9
9
9
9
9
9
9
9
9
9
9
9
9
9
9
9
9
9
9
9
9
9
9
9
9
9
9
9
9
9
9
9
9
9
9
9
9
9
9
9
9
9
9
9
9
9
9
9
9
9
9
9
9
9
9
9
9
9
9
9
9
9
9
9
9
9
9
9
9
9
9
9
9
9
9
9
9
9
9
9
9
9
9
9
9
9
9
9
9
9
9
9
9
9
9
9
9
9
9
9
9
9
9
9
9
9
9
9
9
9
9
9
9
9
9
9
9
9
9
9
9
9
9
9
9
9
9
9
9
9
9
9
9
9
9
9
9
9
9
9
9
9
9
9
9
9
9
9
9
9
9
9
9
9
9
9
9
9
9
9
9
9
9
9
9
9
9
9
9
9
9
9
9
9
9
9
9
9
9
9
9
9
9
9
9
9
9
9
9
9
9
9
9
9
9
9
9
9
9
9
9
9
9
9
9
9
9
9
9
9
9
9
9
9
9
9
9
9
9
9
9
9
9
9
9
9
9
9
9
9
9
9
9
9
9
9
9
9
9
9
9
9
9
9
9
9
9
9
9
9
9
9
9
9
9
9
9
9
9
9
9
9
9
9
9
9
9
9
9
9
9
9
9
9
9
9
9
9
9
9
9
9
9
9
9
9
9
9
9
9
9
9
9
9
9
9
9
9
9
9
9
9
9
9
9
9
9
9
9
9
9
9
9
9
9
9
9
9
9
9
9
9
9
9
9
9
9
9
9
9
9
9
9
9
9
9
9
9
9
9
9
9
9
9
9
9
9
9
9
9
9
9
9
9
9
9
9
9
9
9
9
9
9
9
9
9
9
9
9
9
9
9
9
9
9
9
9
9
9
9
9
9
9
9
9
9
9
9
9
9
9
9
9
9
9
9
9
9
9
9
9
9
9
9
9
9
9
9
9
9
9
9
9
9
9
9
9
9
9
9
9
9
9
9
9
9
9
9
9
9
9
9
9
9
9
9
9
9
9
9
9
9
9
9
9
9
9
9
9
9
9
9
9
9
9
9
9
9
9
9
9
9
9
9
9
9
9
9
9
9
9
9
9
9
9
9
9
9
9
9
9
9
9
9
9
9
9
9
9
9
9
9
9
9
9
9
9
9
9
9
9
9
9
9
9
9
9
9
9
9
9
9
9
9
9
9
9
9
9
9
9
9
9
9
9
9
9
9
9
9
9
9
9
9
9
9
9
9
9
9
9
9
9
9
9
9
9
9
9
9
9
9
9
9
9
9
9
9
9
9
9
9
9
9
9
9
9
9
9
9
9
9
9
9
9
9
9
9
9
9
9
9
9
9
9
9
9
9
9
9
9
9
9
9
9
9
9
9
9
9
9
9
9
9
9
9
9
9
9
9
9
9
9
9
9
9
9
9
9
9
9
9
9
9
9
9
9
9
9
9
9
9
9
9
9
9
9
9
9
9
9
9
9
9
9
9
9
9
9
9
9
9
9
9
9
9
9
9
9
9
9
9
9
9
9
9
9
9
9
9
9
9
9
9
9
9
9
9
9
9
9
9
9
9
9
9
9
9
9
9
9
9
9
9
9
9
9
9
9
9
9
9
9
9
9
9
9
9
9
9
9
9
9
9
9
9
9
9
9
9
9
9
9
9
9
9
9
9
9
9
9
9
9
9
9
9
9
9
9
9
9
9
9
9
9
9
9
9
9
9
9
9
9
9
9
9
9
9
9
9
9
9
9
9
9
9
9
9
9
9
9
9
9
9
9
9
9
9
9
9
9
9
9
9
9
9
9
9
9
9
9
9
9
9
9
9
9
9
9
9
9
9
9
9
9
9
9
9
9
9
9
9
9
9
9
9
9
9
9
9
9
9
9
9
9
9
9
9
9
9
9
9
9
9
9
9
9
9
9
9
9
9
9
9
9
9
9
9
9
9
9
9
9
9
9
9
9
9
9
9
9
9
9
9
9
9
9
9
9
9
9
9
9
9
9
9
9
9
9
9
9
9
9
9
9
9
9
9
9
9
9
9
9
9
9
9
9
9
9
9
9
9
9
9
9
9
9
9
9
9
9
9
9
9
9
9
9
9
9
9
9
9
9
9
9
9
9
9
9
9
9
9
9
9
9
9
9
9
9
9
9
9
9
9
9
9
9
9
9
9
9
9
9
9
9
9
9
9
9
9
9
9
9
9
9
9
9
9
9
9
9
9
9
9
9
9
9
9
9
9
9
9
9
9
9
9
9
9
9
9
9
9
9
9
9
9
9
9
9
9
9
9
9
9
9
9
9
9
9
9
9
9
9
9
9
9
9
9
9
9
9
9
9
9
9
9
9
9
9
9
9
9
9
9
9
9
9
9
9
9
9
9
9
9
9
9
9
9
9
9
9
9
9
9
9
9
9
9
9
9
9
9
9
9
9
9
9
9
9
9
9
9
9
9
9
9
9
9
9
9
9
9
9
9
9
9
9
9
9
9
9
9
9
9
9
9
9
9
9
9
9
9
9
9
9
9
9
9
9
9
9
9
9
9
9
9
9
9
9
9
9
9
9
9
9
9
9
9
9
9
9
9
9
9
9
9
9
9
9
9
9
9
9
9
9
9
9
9
9
9
9
9
9
9
9
9
9
9
9
9
9
9
9
9
9
9
9
9
9
9
9
9
9
9
9
9
9
9
9
9
9
9
9
9
9
9
9
9
9
9
9
9
9
9
9
9
9
9
9
9
9
9
9
9
9
9
9
9
9
9
9
9
9
9
9
9
9
9
9
9
9
9
9
9
9
9
9
9
9
9
9
9
9
9
9
9
9
9
9
9
9
9
9
9
9
9
9
9
9
9
9
9
9
9
9
9
9
9
9
9
9
9
9
9
9
9
9
9
9
9
9
9
9
9
9
9
9
9
9
9
9
9
9
9
9
9
9
9
9
9
9
9
9
9
9
9
9
9
9
9
9
9
9
9
9
9
9
9
9
9
9
9
9
9
9
9
9
9
9
9
9
9
9
9
9
9
9
9
9
9
9
9
9
9
9
9
9
9
9
9
9
9
9
9
9
9
9
9
9
9
9
9
9
9
9
9
9
9
9
9
9
9
9
9
9
9
9
9
9
9
9
9
9
9
9
9
9
9
9
9
9
9
9
9
9
9
9
9
9
9
9
9
9
9
9
9
9
9
9
9
9
9
9
9
9
9
9
9
9
9
9
9
9
9
9
9
9
9
9
9
9
9
9
9
9
9
9
9
9
9
9
9
9
9
9
9
9
9
9
9
9
9
9
9
9
9
9
9
9
9
9
9
9
9
9
9
9
9
9
9
9
9
9
9
9
9
9
9
9
9
9
9
9
9
9
9
9
9
9
9
9
9
9
9
9
9
9
9
9
9
9
9
9
9
9
9
9
9
9
9
9
9
9
9
9
9
9
9
9
9
9
9
9
9
9
9
9
9
9
9
9
9
9
9
9
9
9
9
9
9
9
9
9
9
9
9
9
9
9
9
9
9
9
9
9
9
9
9
9
9
9
9
9
9
9
9
9
9
9
9
9
9
9
9
9
9
9
9
9
9
9
9
9
9
9
9
9
9
9
9
9
9
9
9
9
9
9
9
9
9
9
9
9
9
9
9
9
9
9
9
9
9
9
9
9
9
9
9
9
9
9
9
9
9
9
9
9
9
9
9
9
9
9
9
9
9
9
9
9
9
9
9
9
9
9
9
9
9
9
9
9
9
9
9
9
9
9
9
9
9
9
9
9
9
9
9
9
9
9
9
9
9
9
9
9
9
9
9
9
9
9
9
9
9
9
9
9
9
9
9
9
9
9
9
9
9
9
9
9
9
9
9
9
9
9
9
9
9
9
9
9
9
9
9
9
9
9
9
9
9
9
9
9
9
9
9
9
9
9
9
9
9
9
9
9
9
9
9
9
9
9
9
9
9
9
9
9
9
9
9
9
9
9
9
9
9
9
9
9
9
9
9
9
9
9
9
9
9
9
9
9
9
9
9
9
9
9
9
9
9
9
9
9
9
9
9
9
9
9
9
9
9
9
9
9
9
9
9
9
9
9
9
9
9
9
9
9
9
9
9
9
9
9
9
9
9
9
9
9
9
9
9
9
9
9
9
9
9
9
9
9
9
9
9
9
9
9
9
9
9
9
9
9
9
9
9
9
9
9
9
9
9
9
9
9
9
9
9
9
9
9
9
9
9
9
9
9
9
9
9
9
9
9
9
9
9
9
9
9
9
9
9
9
9
9
9
9
9
9
9
9
9
9
9
9
9
9
9
9
9
9
9
9
9
9
9
9
9
9
9
9
9
9
9
9
9
9
9
9
9
9
9
9
9
9
9
9
9
9
9
9
9
9
9
9
9
9
9
9
9
9
9
9
9
9
9
9
9
9
9
9
9
9
9
9
9
9
9
9
9
9
9
9
9
9
9
9
9
9
9
9
9
9
9
9
9
9
9
9
9
9
9
9
9
9
9
9
9
9
9
9
9
9
9
9
9
9
9
9
9
9
9
9
9
9
9
9
9
9
9
9
9
9
9
9
9
9
9
9
9
9
9
9
9
9
9
9
9
9
9
9
9
9
9
9
9
9
9
9
9
9
9
9
9
9
9
9
9
9
9
9
9
9
9
9
9
9
9
9
9

CELL_DATA 12320
FIELD FieldData 7
B_Stress_n_p_m2 1 12320 float
0.019516 0.0200091 0.0204412 0.0208208 0.0211511 0.021441 0.0216985 0.0219378 0.0221772 
0.0224454 0.0227842 0.023257 0.0239565 0.025016 0.0266198 0.0290098 0.0324671 0.0372747 
0.0436999 0.05196 0.0621995 0.0744775 0.088765 0.104948 0.122835 0.142166 0.162617 
0.183819 0.205359 0.226796 0.247668 0.267503 0.285835 0.302201 0.316172 0.327332 
0.33534 0.339839 0.340646 0.337414 0.019598 0.0200896 0.0205196 0.0208942 0.0212175 
0.0214967 0.0217398 0.0219592 0.022172 0.0224044 0.0226953 0.0231032 0.0237148 0.0246566 
0.0261077 0.0283134 0.0315673 0.0361621 0.0423848 0.0504744 0.0605942 0.0728192 0.0871315 
0.103424 0.121507 0.141118 0.161929 0.183561 0.20559 0.227559 0.248991 0.269398 
0.288291 0.305194 0.319654 0.331248 0.339602 0.34438 0.34533 0.342216 0.0196583 
0.0201516 0.0205845 0.020962 0.021289 0.0215719 0.0218189 0.0220417 0.0222566 0.0224886 
0.0227743 0.0231693 0.0237558 0.0246546 0.0260378 0.0281445 0.0312718 0.0357252 0.0418005 
0.0497518 0.0597574 0.071905 0.0861858 0.102498 0.120654 0.140389 0.161375 0.183224 
0.205506 0.227757 0.24949 0.270205 0.289404 0.3066 0.321329 0.333157 0.3417 
0.346617 0.347641 0.344553 0.0197227 0.0202167 0.0206486 0.0210237 0.0213465 0.0216232 
0.0218615 0.0220722 0.0222706 0.02248 0.0227348 0.0230871 0.0236148 0.024433 0.0257071 
0.0276687 0.0306238 0.0348931 0.0407823 0.0485649 0.0584389 0.0705081 0.084776 0.101148 
0.11944 0.139387 0.160654 0.182848 0.205527 0.228214 0.250409 0.271597 0.291264 
0.308906 0.324044 0.33623 0.345065 0.350199 0.351353 0.348298 0.0198059 0.0203018 
0.0207359 0.0211132 0.0214381 0.0217166 0.0219558 0.022166 0.0223616 0.0225642 0.0228061 
0.023136 0.0236275 0.0243897 0.0255812 0.0274253 0.0302239 0.0343188 0.0400238 0.0476294 
0.0573538 0.0693173 0.083537 0.0999271 0.118307 0.138413 0.159906 0.182385 0.205401 
0.228466 0.251066 0.272672 0.292754 0.310796 0.326301 0.338809 0.347906 0.353233 
0.354499 0.351474 0.0198735 0.0203705 0.0208049 0.0211814 0.0215043 0.0217794 0.0220135 
0.0222162 0.0224011 0.0225882 0.0228079 0.0231059 0.0235519 0.0242491 0.0253502 0.0270701 
0.0297059 0.0336174 0.0391303 0.046552 0.0561216 0.0679777 0.0821522 0.0985689 0.117053 
0.137339 0.159086 0.181887 0.205281 0.228768 0.25182 0.273892 0.294439 0.312926 
0.328841 0.341708 0.3511 0.356643 0.358038 0.355047 0.019964 0.0204628 0.0208988 
0.0212766 0.0216004 0.0218756 0.0221087 0.0223087 0.0224883 0.0226662 0.0228707 0.0231447 
0.0235537 0.0241954 0.0252155 0.0268213 0.0293016 0.0330273 0.0383435 0.0455716 0.0549714 
0.0667016 0.08081 0.0972316 0.115797 0.136244 0.158226 0.181331 0.205088 0.228985 
0.252479 0.27501 0.296016 0.314945 0.331269 0.344495 0.35418 0.35994 0.361463 
0.358507 0.0200395 0.0205398 0.0209766 0.0213544 0.0216773 0.0219506 0.0221803 0.0223751 
0.0225468 0.0227129 0.0228998 0.0231479 0.0235185 0.0241047 0.025045 0.0265398 0.0288696 
0.032405 0.0375232 0.0445538 0.0537778 0.0653762 0.0794131 0.0958362 0.114483 0.135091 
0.157315 0.180732 0.204865 0.229187 0.25314 0.276149 0.297634 0.317024 0.333774 
0.347375 0.357368 0.363356 0.365015 0.362094 0.0201322 0.0206343 0.0210725 0.0214511 
0.0217743 0.0220469 0.0222749 0.0224664 0.0226323 0.0227891 0.0229614 0.023187 0.0235234 
0.0240588 0.0249244 0.0263139 0.0284982 0.0318445 0.0367598 0.0435849 0.052622 0.064075 
0.0780257 0.0944356 0.113149 0.133909 0.156364 0.180088 0.204593 0.229338 0.253753 
0.277243 0.299211 0.319069 0.336253 0.350235 0.360542 0.366762 0.36856 0.365678 
0.0202153 0.020719 0.0211583 0.0215374 0.0218601 0.0221315 0.022357 0.0225443 0.0227039 
0.022851 0.0230086 0.0232122 0.0235156 0.0240023 0.024797 0.0260855 0.0281298 0.0312912 
0.0360002 0.0426158 0.0514594 0.0627587 0.0766146 0.0930031 0.111778 0.132683 0.155368 
0.1794 0.20428 0.229456 0.25434 0.278321 0.300785 0.321122 0.338751 0.353126 
0.363756 0.370216 0.372158 0.369316 0.0203095 0.020815 0.0212556 0.0216354 0.0219582 
0.0222288 0.0224524 0.0226364 0.0227905 0.0229292 0.0230737 0.0232571 0.0235302 0.0239714 
0.0246992 0.0258914 0.0278016 0.0307821 0.0352797 0.0416803 0.0503221 0.0614561 0.0752047 
0.0915595 0.110384 0.131427 0.154335 0.17867 0.203924 0.229531 0.254888 0.279368 
0.302333 0.323159 0.341241 0.356016 0.366977 0.373683 0.375773 0.372974 0.0203986 
0.020906 0.0213478 0.0217282 0.0220508 0.0223204 0.0225421 0.0227227 0.0228714 0.0230018 
0.0231338 0.0232982 0.0235427 0.023941 0.0246058 0.0257063 0.0274887 0.0302959 0.0345764 
0.0407598 0.0491936 0.0601529 0.0737842 0.090095 0.10896 0.130133 0.15326 0.177897 
0.203525 0.229568 0.255404 0.280388 0.303865 0.325187 0.343733 0.358918 0.370218 
0.377176 0.379419 0.376664 0.0204948 0.021004 0.0214471 0.0218282 0.0221509 0.0224197 
0.0226396 0.0228171 0.022961 0.0230838 0.0232043 0.0233511 0.023569 0.0239271 0.0245325 
0.025546 0.0272057 0.0298445 0.033909 0.0398696 0.0480873 0.0588616 0.072364 0.0886191 
0.107514 0.128808 0.152147 0.177082 0.203084 0.229563 0.255882 0.281377 0.305373 
0.327202 0.346219 0.361824 0.37347 0.380686 0.383087 0.380377 0.0205888 0.0210999 
0.0215443 0.0219261 0.0222488 0.0225169 0.0227351 0.0229097 0.0230489 0.0231646 0.0232743 
0.0234046 0.0235977 0.0239182 0.0244676 0.0253989 0.0269414 0.0294178 0.0332695 0.039002 
0.0469971 0.0575775 0.0709401 0.0871285 0.106044 0.12745 0.150995 0.176224 0.2026 
0.229518 0.256324 0.282337 0.306859 0.329203 0.348702 0.364734 0.376735 0.384216 
0.386777 0.384116 0.0206874 0.0212004 0.0216461 0.0220287 0.0223515 0.0226188 0.0228355 
0.0230073 0.0231423 0.0232513 0.0233509 0.023466 0.0236358 0.0239212 0.0244179 0.0252714 
0.0267018 0.0290222 0.0326654 0.0381633 0.0459295 0.0563068 0.0695181 0.0856281 0.104552 
0.126062 0.149806 0.175325 0.202073 0.22943 0.256728 0.283264 0.308321 0.331188 
0.351178 0.367646 0.38001 0.387762 0.390489 0.387878 0.0207856 0.0213006 0.0217477 
0.0221309 0.0224538 0.0227206 0.0229357 0.023105 0.0232358 0.0233387 0.0234289 0.0235298 
0.0236779 0.0239305 0.0243776 0.0251578 0.0264813 0.0286526 0.0320949 0.037349 0.0448824 
0.0550486 0.0680972 0.0841174 0.103039 0.124643 0.148579 0.174384 0.201502 0.229301 
0.257094 0.28416 0.309759 0.333158 0.353648 0.370561 0.383295 0.391324 0.394222 
0.391663 0.0208868 0.0214038 0.0218523 0.0222364 0.0225594 0.0228255 0.0230392 0.0232061 
0.0233331 0.0234302 0.0235116 0.0235993 0.0237272 0.0239491 0.0243496 0.0250606 0.0262823 
0.0283104 0.0315575 0.0365664 0.0438604 0.0538063 0.0666808 0.0825992 0.101507 0.123195 
0.147315 0.173401 0.200888 0.229129 0.257421 0.285022 0.311171 0.335111 0.356109 
0.373477 0.386589 0.394903 0.397975 0.39547 0.0209887 0.0215077 0.0219576 0.0223425 
0.0226656 0.0229312 0.0231436 0.0233081 0.0234315 0.0235232 0.0235965 0.0236718 0.0237809 
0.0239742 0.024331 0.0249768 0.0261019 0.0279928 0.0310505 0.0358158 0.0428631 0.0525798 
0.0652694 0.081074 0.0999559 0.121718 0.146015 0.172377 0.20023 0.228914 0.257709 
0.285851 0.312557 0.337047 0.358563 0.376393 0.389891 0.398496 0.401748 0.3993 
0.0210929 0.0216139 0.0220653 0.022451 0.0227743 0.0230394 0.0232504 0.0234127 0.0235327 
0.0236193 0.0236849 0.0237488 0.0238403 0.0240069 0.0243228 0.024907 0.0259407 0.0277 
0.0305748 0.0350999 0.0418922 0.0513715 0.0638655 0.079544 0.0983886 0.120214 0.144679 
0.171311 0.199528 0.228656 0.257956 0.286645 0.313916 0.338964 0.361007 0.379309 
0.393202 0.402104 0.405541 0.403151 0.0211981 0.0217212 0.0221741 0.0225606 0.0228841 
0.0231486 0.0233584 0.0235186 0.0236354 0.0237172 0.0237757 0.0238288 0.023904 0.0240456 
0.0243234 0.0248495 0.0257968 0.0274301 0.0301294 0.0344199 0.0409471 0.0501821 0.0624706 
0.0780104 0.0968056 0.118683 0.143308 0.170205 0.198782 0.228354 0.258162 0.287403 
0.315247 0.340862 0.363441 0.382225 0.396521 0.405727 0.409352 0.407024 0.0213052 
0.0218305 0.0222848 0.0226721 0.0229958 0.0232599 0.0234685 0.0236267 0.0237404 0.0238176 
0.0238694 0.0239124 0.0239725 0.0240907 0.0243328 0.0248042 0.0256698 0.0271827 0.0297137 
0.0337774 0.040029 0.0490137 0.0610867 0.0764749 0.0952084 0.117127 0.141902 0.169057 
0.197992 0.228007 0.258328 0.288126 0.316549 0.34274 0.365865 0.385139 0.399846 
0.409364 0.413183 0.410919 0.0214137 0.021941 0.0223968 0.022785 0.0231089 0.0233726 
0.02358 0.0237362 0.0238469 0.0239198 0.0239654 0.0239991 0.024045 0.0241414 0.0243502 
0.0247701 0.0255586 0.0269569 0.0293257 0.033168 0.0391434 0.0478685 0.0597148 0.074939 
0.0935981 0.115546 0.140463 0.167869 0.197158 0.227617 0.258452 0.288813 0.317823 
0.344598 0.368278 0.388052 0.403179 0.413015 0.417033 0.414835 0.0215238 0.0220533 
0.0225106 0.0228996 0.0232237 0.0234869 0.0236932 0.0238475 0.0239554 0.0240242 0.0240639 
0.0240888 0.0241215 0.0241976 0.0243752 0.024747 0.0254626 0.026752 0.0289648 0.0325919 
0.0382919 0.0467476 0.0583565 0.0734044 0.0919762 0.113942 0.13899 0.166641 0.19628 
0.227182 0.258533 0.289462 0.319066 0.346435 0.37068 0.390963 0.406518 0.41668 
0.420901 0.418772 0.0216352 0.0221669 0.0226257 0.0230157 0.02334 0.0236027 0.0238079 
0.0239603 0.0240655 0.0241305 0.0241645 0.0241812 0.0242016 0.0242588 0.0244073 0.024734 
0.0253807 0.0265667 0.0286298 0.0320486 0.0374766 0.0456515 0.0570132 0.0718727 0.090344 
0.112315 0.137484 0.165372 0.195358 0.226701 0.258572 0.290074 0.32028 0.34825 
0.37307 0.393872 0.409864 0.420358 0.424788 0.42273 0.0217482 0.0222821 0.0227425 
0.0231333 0.0234578 0.0237201 0.0239242 0.0240748 0.0241774 0.0242386 0.0242673 0.0242763 
0.0242852 0.0243249 0.024446 0.0247305 0.0253121 0.0264004 0.0283198 0.0315381 0.0366995 
0.0445804 0.0556862 0.070346 0.088703 0.110668 0.135947 0.164064 0.194392 0.226176 
0.258567 0.290648 0.321462 0.350043 0.375447 0.396777 0.413216 0.424049 0.428694 
0.426709 0.0218627 0.0223988 0.0228607 0.0232523 0.0235771 0.0238389 0.0240419 0.0241907 
0.0242907 0.0243484 0.0243721 0.0243739 0.024372 0.0243953 0.0244909 0.0247359 0.0252562 
0.0262519 0.0280337 0.0310592 0.0359622 0.0435352 0.0543776 0.068826 0.0870547 0.109 
0.134378 0.162717 0.193381 0.225605 0.258519 0.291183 0.322612 0.351814 0.377811 
0.39968 0.416573 0.427754 0.432618 0.43071 0.0219785 0.0225169 0.0229804 0.0233729 
0.0236978 0.0239592 0.0241611 0.0243082 0.0244057 0.0244599 0.0244789 0.0244739 0.0244619 
0.0244699 0.0245416 0.0247498 0.0252123 0.0261204 0.0277709 0.0306101 0.0352598 0.0425226 
0.0530899 0.0673138 0.0854004 0.107313 0.132779 0.161331 0.192326 0.224988 0.258427 
0.291678 0.323731 0.353561 0.380162 0.402579 0.419937 0.431472 0.436561 0.434731 
0.0220958 0.0226364 0.0231014 0.0234949 0.0238199 0.0240809 0.0242816 0.024427 0.0245221 
0.024573 0.0245874 0.024576 0.0245546 0.0245483 0.0245979 0.0247715 0.0251799 0.0260051 
0.0275306 0.0301901 0.0345926 0.0415442 0.0518245 0.065811 0.0837418 0.105608 0.13115 
0.159906 0.191228 0.224325 0.25829 0.292133 0.324816 0.355284 0.382498 0.405473 
0.423305 0.435203 0.440523 0.438774 0.0222145 0.0227574 0.023224 0.0236183 0.0239435 
0.024204 0.0244036 0.0245473 0.02464 0.0246877 0.0246978 0.0246803 0.02465 0.0246305 
0.0246594 0.0248007 0.0251583 0.0259051 0.0273116 0.0297983 0.0339605 0.0406028 0.0505818 
0.064319 0.0820805 0.103887 0.129494 0.158444 0.190086 0.223616 0.258108 0.292548 
0.325868 0.356982 0.38482 0.408364 0.426678 0.438947 0.444502 0.442838 0.0223345 
0.0228797 0.0233479 0.023743 0.0240685 0.0243284 0.024527 0.0246689 0.0247593 0.0248039 
0.0248098 0.0247866 0.024748 0.024716 0.0247256 0.0248366 0.0251467 0.0258194 0.0271131 
0.0294335 0.0333633 0.0397001 0.0493627 0.0628392 0.0804185 0.10215 0.127809 0.156944 
0.1889 0.22286 0.257881 0.292922 0.326886 0.358656 0.387127 0.411249 0.430056 
0.442704 0.4485 0.446923 0.022456 0.0230035 0.0234732 0.0238692 0.0241948 0.0244542 
0.0246517 0.0247919 0.0248799 0.0249215 0.0249234 0.0248947 0.0248484 0.0248046 0.0247964 
0.024879 0.0251447 0.0257472 0.026934 0.0290946 0.0328006 0.0388404 0.0481656 0.0613733 
0.0787577 0.1004 0.126098 0.155407 0.18767 0.222059 0.257608 0.293254 0.327869 
0.360303 0.389419 0.41413 0.433439 0.446473 0.452517 0.45103 0.0225787 0.0231286 
0.0235999 0.0239967 0.0243224 0.0245814 0.0247777 0.0249162 0.0250019 0.0250404 0.0250385 
0.0250046 0.024951 0.0248963 0.0248714 0.0249275 0.0251515 0.025688 0.0267734 0.0287809 
0.0322703 0.0380186 0.0469985 0.0599244 0.0770993 0.0986372 0.124362 0.153834 0.186397 
0.22121 0.257289 0.293544 0.328817 0.361925 0.391694 0.417004 0.436825 0.450255 
0.456551 0.455157 0.0227028 0.0232551 0.023728 0.0241256 0.0244514 0.0247098 0.0249049 
0.0250417 0.0251251 0.0251608 0.0251551 0.0251163 0.0250557 0.0249908 0.0249503 0.0249818 
0.0251668 0.0256411 0.0266305 0.0284919 0.0317714 0.0372338 0.0458643 0.0584944 0.0754447 
0.0968632 0.1226 0.152225 0.185081 0.220315 0.256923 0.293791 0.329729 0.363519 
0.393953 0.419873 0.440216 0.454048 0.460604 0.459306 0.0228282 0.0233828 0.0238573 
0.0242558 0.0245817 0.0248395 0.0250335 0.0251685 0.0252497 0.0252824 0.0252732 0.0252295 
0.0251624 0.025088 0.0250329 0.0250414 0.0251899 0.0256059 0.0265044 0.0282263 0.0313034 
0.0364859 0.0447657 0.0570843 0.0737953 0.0950796 0.120816 0.150582 0.183722 0.219373 
0.256511 0.293995 0.330605 0.365086 0.396194 0.422735 0.443611 0.457855 0.464676 
0.463476 0.022955 0.0235119 0.023988 0.0243873 0.0247133 0.0249705 0.0251632 0.0252965 
0.0253754 0.0254053 0.0253925 0.0253444 0.0252711 0.0251876 0.025119 0.025106 0.0252204 
0.0255816 0.026394 0.0279833 0.0308652 0.0357751 0.0437056 0.0556947 0.0721527 0.0932881 
0.119008 0.148904 0.182321 0.218384 0.256052 0.294155 0.331443 0.366625 0.398418 
0.425591 0.447008 0.461673 0.468765 0.467668 0.023083 0.0236424 0.02412 0.0245201 
0.0248461 0.0251027 0.0252942 0.0254257 0.0255023 0.0255295 0.0255132 0.0254607 0.0253815 
0.0252897 0.0252082 0.0251753 0.0252576 0.0255677 0.0262984 0.0277617 0.0304555 0.0351014 
0.0426862 0.0543263 0.0705182 0.0914906 0.11718 0.147194 0.180877 0.217348 0.255545 
0.294271 0.332244 0.368135 0.400624 0.428439 0.450409 0.465503 0.472873 0.471881 
0.0232122 0.0237741 0.0242533 0.0246542 0.0249802 0.0252361 0.0254264 0.0255561 0.0256304 
0.0256548 0.0256352 0.0255784 0.0254936 0.0253939 0.0253005 0.0252489 0.0253013 0.0255634 
0.0262169 0.0275606 0.0300732 0.0344643 0.0417126 0.0529773 0.0688936 0.089689 0.115332 
0.14545 0.179392 0.216265 0.25499 0.294342 0.333006 0.369616 0.402811 0.43128 
0.453813 0.469344 0.476998 0.476115 0.0233428 0.023907 0.0243879 0.0247895 0.0251156 
0.0253708 0.0255598 0.0256877 0.0257597 0.0257813 0.0257583 0.0256975 0.0256073 0.0255002 
0.0253955 0.0253267 0.025351 0.0255682 0.026149 0.0273792 0.0297179 0.0338615 0.0407779 
0.0516576 0.0672826 0.0878844 0.113464 0.143675 0.177865 0.215136 0.254387 0.294369 
0.333729 0.371067 0.404979 0.434113 0.45722 0.473198 0.481142 0.480371 0.0234746 
0.0240413 0.0245237 0.0249261 0.0252521 0.0255066 0.0256943 0.0258203 0.02589 0.0259089 
0.0258827 0.0258179 0.0257226 0.0256084 0.0254933 0.0254083 0.0254065 0.0255816 0.0260939 
0.0272164 0.0293889 0.0332922 0.0398819 0.0503701 0.0656869 0.086078 0.11158 0.141869 
0.176297 0.213959 0.253735 0.294349 0.334413 0.372488 0.407127 0.436937 0.460628 
0.477063 0.485305 0.484648 0.0236076 0.0241768 0.0246608 0.0250639 0.0253899 0.0256436 
0.0258299 0.0259541 0.0260215 0.0260376 0.0260082 0.0259396 0.0258394 0.0257185 0.0255936 
0.0254935 0.0254673 0.025603 0.026051 0.0270714 0.029085 0.0327558 0.0390246 0.0491178 
0.0641079 0.0842715 0.109679 0.140033 0.174689 0.212736 0.253035 0.294283 0.335057 
0.373877 0.409254 0.439753 0.464039 0.480939 0.489485 0.488947 0.0237419 0.0243135 
0.0247991 0.0252029 0.0255288 0.0257818 0.0259667 0.026089 0.026154 0.0261674 0.0261348 
0.0260624 0.0259575 0.0258303 0.0256963 0.0255821 0.0255331 0.0256319 0.0260195 0.0269431 
0.0288052 0.0322514 0.0382063 0.0479038 0.0625461 0.0824662 0.107763 0.138167 0.17304 
0.211466 0.252287 0.294171 0.335661 0.375235 0.411361 0.442559 0.467452 0.484827 
0.493683 0.493267 0.0238773 0.0244514 0.0249386 0.0253431 0.0256689 0.0259211 0.0261045 
0.0262249 0.0262876 0.0262982 0.0262625 0.0261864 0.026077 0.0259438 0.0258011 0.0256737 
0.0256036 0.0256678 0.0259987 0.0268307 0.0285486 0.031778 0.0374274 0.046731 0.061002 
0.0806635 0.105835 0.136274 0.171352 0.210149 0.251489 0.294011 0.336223 0.37656 
0.413447 0.445355 0.470866 0.488726 0.4979 0.497609 0.024014 0.0245906 0.0250793 
0.0254845 0.0258102 0.0260615 0.0262435 0.0263619 0.0264221 0.0264301 0.0263912 0.0263116 
0.0261978 0.0260588 0.0259081 0.0257682 0.0256785 0.0257102 0.025988 0.0267331 0.028314 
0.0313341 0.0366876 0.0456036 0.0594752 0.078865 0.103895 0.134354 0.169626 0.208786 
0.250642 0.293804 0.336743 0.377853 0.41551 0.448142 0.474282 0.492635 0.502134 
0.501973 0.0241519 0.024731 0.0252212 0.0256271 0.0259526 0.026203 0.0263835 0.0264999 
0.0265577 0.0265629 0.026521 0.0264378 0.0263198 0.0261754 0.026017 0.0258655 0.0257574 
0.0257587 0.0259869 0.0266498 0.0281005 0.030919 0.0359853 0.0445209 0.0579699 0.0770738 
0.101946 0.132407 0.167861 0.207377 0.249746 0.293549 0.337221 0.379112 0.417552 
0.450918 0.477698 0.496556 0.506386 0.506358 0.0242909 0.0248726 0.0253644 0.0257709 
0.0260962 0.0263456 0.0265246 0.0266389 0.0266943 0.0266967 0.0266517 0.026565 0.026443 
0.0262933 0.0261278 0.0259654 0.0258402 0.0258131 0.0259947 0.0265802 0.0279072 0.0305323 
0.035319 0.0434782 0.056494 0.0752928 0.0999888 0.130435 0.166059 0.205921 0.248799 
0.293246 0.337657 0.380337 0.41957 0.453682 0.481115 0.500487 0.510657 0.510765 
0.0244311 0.0250153 0.0255086 0.0259158 0.0262408 0.0264893 0.0266667 0.0267789 0.0268319 
0.0268315 0.0267835 0.0266933 0.0265673 0.0264126 0.0262403 0.0260677 0.0259265 0.025873 
0.026011 0.0265236 0.0277332 0.0301731 0.0346882 0.0424759 0.0550504 0.0735236 0.0980242 
0.12844 0.164219 0.20442 0.247804 0.292893 0.338048 0.381527 0.421564 0.456436 
0.484533 0.504429 0.514945 0.515193 0.0245725 0.0251592 0.0256541 0.0260619 0.0263866 
0.0266341 0.0268098 0.0269199 0.0269704 0.0269673 0.0269161 0.0268226 0.0266927 0.0265332 
0.0263544 0.0261723 0.0260162 0.025938 0.0260351 0.0264792 0.0275775 0.0298403 0.0340921 
0.0415142 0.0536424 0.0717674 0.0960538 0.126422 0.162344 0.202872 0.246758 0.292492 
0.338396 0.382682 0.423535 0.459177 0.48795 0.508381 0.519251 0.519644 0.0247151 
0.0253043 0.0258007 0.026209 0.0265335 0.0267799 0.0269539 0.0270619 0.0271099 0.0271039 
0.0270497 0.0269529 0.0268191 0.026655 0.0264701 0.026279 0.0261089 0.0260078 0.0260666 
0.0264463 0.027439 0.0295328 0.03353 0.0405936 0.0522733 0.0700246 0.094079 0.124383 
0.160432 0.20128 0.245662 0.292041 0.338699 0.383802 0.42548 0.461906 0.491367 
0.512343 0.523576 0.524116 0.0248588 0.0254506 0.0259485 0.0263573 0.0266815 0.0269268 
0.0270991 0.0272049 0.0272503 0.0272415 0.0271842 0.027084 0.0269466 0.026778 0.0265872 
0.0263878 0.0262046 0.026082 0.0261049 0.0264243 0.0273168 0.0292496 0.0330006 0.0397146 
0.0509467 0.0682959 0.0921011 0.122324 0.158486 0.199643 0.244516 0.29154 0.338957 
0.384884 0.427401 0.464623 0.494784 0.516316 0.527918 0.52861 0.0250036 0.025598 
0.0260974 0.0265068 0.0268305 0.0270747 0.0272452 0.0273487 0.0273916 0.0273799 0.0273196 
0.0272161 0.027075 0.0269022 0.0267058 0.0264984 0.0263029 0.0261604 0.0261496 0.0264124 
0.02721 0.0289895 0.0325025 0.0388771 0.0496668 0.0665808 0.0901218 0.120248 0.156507 
0.197962 0.24332 0.290989 0.339169 0.38593 0.429295 0.467326 0.4982 0.520298 
0.532278 0.533126 0.0251496 0.0257465 0.0262474 0.0266573 0.0269806 0.0272236 0.0273923 
0.0274936 0.0275337 0.0275192 0.0274559 0.0273491 0.0272044 0.0270274 0.0268257 0.0266108 
0.0264038 0.0262427 0.0262003 0.0264101 0.0271178 0.0287517 0.032035 0.0380796 0.0484347 
0.0648824 0.0881439 0.118156 0.154494 0.196236 0.242074 0.290387 0.339335 0.386938 
0.431164 0.470015 0.501615 0.52429 0.536655 0.537664 0.0252967 0.0258962 0.0263986 
0.0268089 0.0271318 0.0273735 0.0275404 0.0276393 0.0276768 0.0276594 0.027593 0.027483 
0.0273347 0.0271537 0.0269468 0.026725 0.0265071 0.0263287 0.0262567 0.0264169 0.0270398 
0.0285352 0.0315977 0.0373204 0.0472439 0.0632107 0.0861708 0.116048 0.152449 0.194467 
0.240778 0.289734 0.339454 0.387907 0.433005 0.47269 0.505028 0.528292 0.541051 
0.542224 0.025445 0.026047 0.0265509 0.0269616 0.027284 0.0275244 0.0276894 0.027786 
0.0278208 0.0278005 0.0277309 0.0276177 0.0274659 0.0272809 0.0270692 0.0268407 0.0266126 
0.026418 0.0263185 0.0264322 0.0269752 0.0283391 0.0311899 0.036599 0.0460952 0.0615687 
0.0842044 0.113926 0.150372 0.192655 0.239431 0.28903 0.339526 0.388838 0.434819 
0.475351 0.50844 0.532303 0.545464 0.546806 0.0255943 0.026199 0.0267042 0.0271154 
0.0274372 0.0276764 0.0278394 0.0279335 0.0279656 0.0279423 0.0278697 0.0277533 0.027598 
0.0274092 0.0271927 0.0269579 0.0267203 0.0265106 0.0263854 0.0264554 0.0269233 0.0281623 
0.0308103 0.0359147 0.0449885 0.0599602 0.0822459 0.111791 0.148266 0.190799 0.238034 
0.288275 0.33955 0.389729 0.436604 0.477997 0.511849 0.536324 0.549895 0.55141 
0.0257448 0.026352 0.0268587 0.0272703 0.0275915 0.0278293 0.0279903 0.0280819 0.0281113 
0.028085 0.0280093 0.0278897 0.027731 0.0275384 0.0273173 0.0270765 0.02683 0.0266061 
0.0264569 0.0264861 0.0268833 0.0280038 0.0304579 0.035267 0.0439247 0.0583885 0.0802961 
0.109644 0.14613 0.188901 0.236587 0.287467 0.339526 0.39058 0.438361 0.480626 
0.515256 0.540354 0.554344 0.556036 0.0258964 0.0265062 0.0270143 0.0274262 0.0277468 
0.0279831 0.0281421 0.0282313 0.0282578 0.0282285 0.0281497 0.0280269 0.0278648 0.0276685 
0.0274431 0.0271965 0.0269416 0.0267043 0.0265328 0.0265236 0.0268545 0.0278626 0.0301316 
0.0346549 0.0429044 0.0568577 0.0783553 0.107487 0.143967 0.186962 0.235091 0.286607 
0.339453 0.391391 0.440089 0.48324 0.51866 0.544392 0.55881 0.560684 0.026049 
0.0266615 0.027171 0.0275832 0.0279031 0.028138 0.0282948 0.0283815 0.0284051 0.0283729 
0.0282909 0.0281648 0.0279995 0.0277995 0.0275698 0.0273177 0.0270549 0.0268052 0.0266128 
0.0265676 0.0268362 0.0277377 0.0298303 0.0340769 0.0419283 0.0553713 0.0764241 0.10532 
0.141778 0.184981 0.233545 0.285695 0.339331 0.39216 0.441787 0.485838 0.522061 
0.54844 0.563294 0.565355 0.0262028 0.0268179 0.0273288 0.0277412 0.0280604 0.0282937 
0.0284485 0.0285325 0.0285533 0.028518 0.0284329 0.0283036 0.0281349 0.0279314 0.0276976 
0.0274401 0.0271699 0.0269084 0.0266965 0.0266175 0.0268279 0.0276282 0.0295529 0.0335316 
0.0409958 0.0539351 0.0745013 0.103147 0.139564 0.18296 0.231949 0.28473 0.33916 
0.392887 0.443455 0.488418 0.525459 0.552496 0.567796 0.570047 0.0263577 0.0269753 
0.0274876 0.0279003 0.0282187 0.0284505 0.028603 0.0286844 0.0287023 0.0286639 0.0285756 
0.0284431 0.0282712 0.0280641 0.0278263 0.0275638 0.0272865 0.0270138 0.0267839 0.0266732 
0.0268289 0.0275335 0.0292985 0.0330186 0.0401052 0.0525466 0.0725937 0.100969 0.137327 
0.180899 0.230305 0.283712 0.338938 0.393572 0.445091 0.490981 0.528853 0.55656 
0.572315 0.574762 0.0265137 0.0271339 0.0276475 0.0280604 0.028378 0.0286082 0.0287584 
0.0288371 0.028852 0.0288106 0.0287192 0.0285835 0.0284082 0.0281977 0.0279559 0.0276885 
0.0274045 0.0271215 0.0268746 0.0267343 0.0268388 0.027453 0.0290661 0.0325376 0.0392552 
0.0512011 0.07071 0.0987907 0.135068 0.178798 0.22861 0.282641 0.338665 0.394213 
0.446696 0.493526 0.532243 0.560633 0.576852 0.579499 0.0266707 0.0272936 0.0278085 
0.0282215 0.0285383 0.0287668 0.0289147 0.0289907 0.0290026 0.028958 0.0288634 0.0287245 
0.028546 0.028332 0.0280865 0.0278143 0.027524 0.0272311 0.0269685 0.0268004 0.0268569 
0.0273861 0.0288549 0.0320876 0.0384453 0.0498991 0.0688536 0.0966133 0.132786 0.176659 
0.226867 0.281517 0.338342 0.394811 0.448269 0.496053 0.535629 0.564714 0.581406 
0.584259 0.0268289 0.0274543 0.0279706 0.0283837 0.0286996 0.0289263 0.0290719 0.0291451 
0.029154 0.0291062 0.0290085 0.0288663 0.0286846 0.0284672 0.0282179 0.0279412 0.0276448 
0.0273427 0.0270652 0.0268713 0.0268828 0.0273318 0.0286636 0.0316675 0.0376749 0.0486409 
0.0670286 0.0944381 0.130485 0.174482 0.225075 0.280339 0.337966 0.395365 0.449809 
0.49856 0.539009 0.568803 0.585977 0.589041 0.0269881 0.0276162 0.0281337 0.0285469 
0.0288618 0.0290868 0.02923 0.0293003 0.0293062 0.0292552 0.0291542 0.0290089 0.0288239 
0.0286031 0.0283502 0.028069 0.0277668 0.0274561 0.0271646 0.0269466 0.0269159 0.0272895 
0.0284913 0.0312761 0.0369436 0.0474274 0.0652385 0.0922659 0.128164 0.172268 0.223234 
0.279107 0.337539 0.395874 0.451316 0.501049 0.542385 0.5729 0.590566 0.593845 
0.0271484 0.0277791 0.0282979 0.0287112 0.029025 0.0292481 0.0293889 0.0294564 0.0294591 
0.029405 0.0293008 0.0291522 0.028964 0.0287399 0.0284833 0.0281979 0.0278901 0.0275711 
0.0272666 0.027026 0.0269557 0.0272585 0.0283369 0.0309124 0.0362504 0.0462595 0.0634875 
0.0900974 0.125824 0.170019 0.221345 0.277822 0.337059 0.396338 0.452789 0.503517 
0.545755 0.577004 0.595172 0.598672 0.0273098 0.0279431 0.0284631 0.0288764 0.0291892 
0.0294104 0.0295487 0.0296133 0.0296129 0.0295555 0.029448 0.0292962 0.0291048 0.0288774 
0.0286172 0.0283276 0.0280145 0.0276878 0.0273709 0.0271093 0.0270017 0.0272381 0.0281994 
0.0305751 0.0355941 0.0451381 0.0617804 0.0879322 0.123468 0.167734 0.219408 0.276484 
0.336526 0.396756 0.454227 0.505965 0.54912 0.581115 0.599795 0.603521 0.0274723 
0.0281082 0.0286294 0.0290427 0.0293544 0.0295736 0.0297093 0.0297709 0.0297673 0.0297067 
0.029596 0.029441 0.0292463 0.0290156 0.0287519 0.0284583 0.0281399 0.0278059 0.0274773 
0.0271961 0.0270535 0.0272276 0.0280778 0.0302632 0.0349729 0.0440633 0.0601203 0.0857716 
0.121096 0.165418 0.217424 0.275092 0.33594 0.397127 0.45563 0.508391 0.552478 
0.585234 0.604436 0.608392 0.0276359 0.0282744 0.0287968 0.02921 0.0295205 0.0297377 
0.0298708 0.0299294 0.0299226 0.0298587 0.0297447 0.0295865 0.0293886 0.0291546 0.0288874 
0.0285898 0.0282664 0.0279255 0.0275858 0.0272862 0.0271108 0.0272265 0.0279713 0.0299756 
0.0343858 0.0430344 0.0585154 0.0836125 0.11871 0.16307 0.215393 0.273646 0.335301 
0.397452 0.456998 0.510797 0.55583 0.58936 0.609093 0.613287 0.0278005 0.0284417 
0.0289652 0.0293783 0.0296875 0.0299027 0.0300331 0.0300887 0.0300786 0.0300114 0.0298941 
0.0297327 0.0295316 0.0292943 0.0290237 0.0287222 0.028394 0.0280464 0.0276963 0.0273795 
0.0271733 0.0272342 0.0278795 0.0297115 0.0338328 0.0420491 0.0569559 0.0814695 0.116314 
0.160691 0.213314 0.272146 0.334607 0.397728 0.458329 0.51318 0.559175 0.593492 
0.613768 0.618203 0.0279663 0.02861 0.0291347 0.0295476 0.0298556 0.0300686 0.0301962 
0.0302487 0.0302354 0.0301649 0.0300443 0.0298796 0.0296753 0.0294348 0.0291607 0.0288555 
0.0285225 0.0281685 0.0278086 0.0274758 0.0272407 0.0272503 0.0278016 0.0294698 0.0333133 
0.0411067 0.0554415 0.0793469 0.113911 0.158281 0.21119 0.270593 0.333858 0.397957 
0.459624 0.515541 0.562512 0.597631 0.61846 0.623142 0.0281331 0.0287794 0.0293052 
0.0297179 0.0300245 0.0302354 0.0303602 0.0304096 0.030393 0.0303191 0.0301952 0.0300272 
0.0298197 0.029576 0.0292985 0.0289895 0.0286519 0.0282919 0.0279227 0.0275748 0.0273126 
0.0272741 0.0277369 0.0292495 0.0328263 0.0402067 0.0539718 0.0772494 0.111503 0.155841 
0.209019 0.268985 0.333055 0.398137 0.460881 0.51788 0.565842 0.601777 0.623169 
0.628104 0.028301 0.0289499 0.0294768 0.0298892 0.0301944 0.030403 0.030525 0.0305712 
0.0305512 0.030474 0.0303468 0.0301756 0.0299648 0.0297179 0.0294371 0.0291244 0.0287823 
0.0284165 0.0280384 0.0276763 0.0273889 0.0273053 0.0276847 0.0290496 0.0323706 0.0393489 
0.0525478 0.0751809 0.10909 0.153373 0.206803 0.267323 0.332197 0.398267 0.462099 
0.520194 0.569164 0.605928 0.627895 0.633088 0.02847 0.0291215 0.0296494 0.0300615 
0.0303653 0.0305716 0.0306907 0.0307336 0.0307103 0.0306296 0.0304991 0.0303246 0.0301107 
0.0298606 0.0295763 0.02926 0.0289136 0.0285421 0.0281557 0.0277802 0.0274691 0.0273432 
0.0276442 0.028869 0.031945 0.0385326 0.0511704 0.0731452 0.106674 0.150878 0.204543 
0.265607 0.331283 0.398348 0.46328 0.522485 0.572478 0.610086 0.632637 0.638095 
0.02864 0.0292942 0.0298231 0.0302348 0.0305371 0.030741 0.0308572 0.0308968 0.0308701 
0.030786 0.0306521 0.0304744 0.0302573 0.0300039 0.0297164 0.0293965 0.0290458 0.0286688 
0.0282745 0.0278863 0.0275531 0.0273874 0.0276147 0.0287065 0.0315483 0.037757 0.0498409 
0.0711468 0.104255 0.148355 0.202238 0.263837 0.330313 0.398378 0.464421 0.524751 
0.575783 0.614249 0.637396 0.643124 0.0288112 0.0294679 0.0299978 0.0304091 0.0307098 
0.0309113 0.0310244 0.0310608 0.0310306 0.0309431 0.0308059 0.0306249 0.0304045 0.030148 
0.0298572 0.0295336 0.0291788 0.0287965 0.0283946 0.0279944 0.0276405 0.0274374 0.0275955 
0.0285613 0.0311793 0.0370208 0.0485602 0.0691903 0.101832 0.145807 0.199891 0.262013 
0.329288 0.398358 0.465523 0.526992 0.579079 0.618418 0.642172 0.648176 0.0289834 
0.0296427 0.0301735 0.0305844 0.0308834 0.0310824 0.0311925 0.0312256 0.0311919 0.031101 
0.0309603 0.0307761 0.0305525 0.0302928 0.0299987 0.0296716 0.0293126 0.0289252 0.028516 
0.0281045 0.0277312 0.0274929 0.027586 0.0284321 0.030837 0.0363227 0.047329 0.0672807 
0.0994065 0.143234 0.197502 0.260136 0.328207 0.398286 0.466584 0.529207 0.582366 
0.622593 0.646965 0.653251 0.0291568 0.0298186 0.0303503 0.0307606 0.031058 0.0312545 
0.0313615 0.0313911 0.0313539 0.0312595 0.0311155 0.030928 0.0307013 0.0304383 0.0301409 
0.0298103 0.0294473 0.0290548 0.0286387 0.0282163 0.0278249 0.0275535 0.0275857 0.0283183 
0.0305202 0.035661 0.046147 0.0654225 0.0969782 0.140637 0.195073 0.258205 0.327069 
0.398162 0.467604 0.531397 0.585642 0.626772 0.651774 0.658348 0.0293312 0.0299956 
0.0305282 0.0309379 0.0312335 0.0314273 0.0315312 0.0315574 0.0315167 0.0314188 0.0312714 
0.0310806 0.0308507 0.0305846 0.0302839 0.0299497 0.0295827 0.0291853 0.0287626 0.0283299 
0.0279214 0.0276188 0.027594 0.028219 0.0302278 0.0350348 0.045013 0.0636202 0.0945479 
0.13802 0.192604 0.256221 0.325875 0.397986 0.468583 0.53356 0.588909 0.630957 
0.6566 0.663468 0.0295067 0.0301737 0.0307071 0.0311161 0.0314099 0.0316011 0.0317017 
0.0317244 0.0316802 0.0315788 0.0314281 0.031234 0.0310009 0.0307315 0.0304276 0.0300898 
0.029719 0.0293167 0.0288876 0.028445 0.0280205 0.0276886 0.0276103 0.0281337 0.0299591 
0.0344444 0.0439249 0.0618635 0.092131 0.135386 0.190096 0.254183 0.324623 0.397757 
0.46952 0.535696 0.592165 0.635146 0.661442 0.668611 0.0296832 0.0303528 0.030887 
0.0312954 0.0315873 0.0317757 0.0318731 0.0318923 0.0318445 0.0317396 0.0315854 0.0313881 
0.0311517 0.0308792 0.030572 0.0302308 0.029856 0.0294489 0.0290137 0.0285617 0.0281222 
0.0277628 0.0276343 0.0280619 0.0297129 0.0338891 0.0428825 0.0601536 0.0897305 0.132737 
0.187549 0.252092 0.323314 0.397474 0.470414 0.537804 0.59541 0.639339 0.666301 
0.673776 0.0298609 0.030533 0.031068 0.0314756 0.0317655 0.0319511 0.0320452 0.0320609 
0.0320095 0.0319011 0.0317435 0.0315429 0.0313034 0.0310276 0.0307171 0.0303724 0.0299938 
0.029582 0.0291408 0.0286799 0.0282262 0.027841 0.0276655 0.0280028 0.0294882 0.0333675 
0.0418852 0.05849 0.0873517 0.130075 0.184964 0.249948 0.321947 0.397137 0.471265 
0.539884 0.598644 0.643537 0.671175 0.678963 0.0300396 0.0307143 0.03125 0.0316568 
0.0319447 0.0321274 0.0322181 0.0322302 0.0321752 0.0320633 0.0319023 0.0316984 0.0314557 
0.0311768 0.030863 0.0305148 0.0301324 0.029716 0.029269 0.0287995 0.0283323 0.0279229 
0.0277033 0.0279556 0.0292839 0.0328786 0.0409328 0.0568742 0.0849983 0.127401 0.182341 
0.247751 0.320522 0.396746 0.472073 0.541936 0.601866 0.647739 0.676066 0.684174 
0.0302195 0.0308966 0.031433 0.0318389 0.0321247 0.0323046 0.0323919 0.0324003 0.0323417 
0.0322262 0.0320619 0.0318547 0.0316088 0.0313266 0.0310096 0.0306579 0.0302717 0.0298508 
0.0293981 0.0289204 0.0284405 0.0280083 0.0277472 0.0279195 0.029099 0.0324211 0.0400247 
0.0553072 0.0826746 0.124715 0.179682 0.245502 0.31904 0.3963 0.472836 0.543958 
0.605076 0.651945 0.680973 0.689406 0.0304004 0.0310801 0.031617 0.0320221 0.0323057 
0.0324826 0.0325664 0.0325712 0.0325089 0.0323898 0.0322221 0.0320117 0.0317626 0.0314773 
0.031157 0.0308018 0.0304118 0.0299864 0.0295281 0.0290426 0.0285505 0.028097 0.027797 
0.027894 0.0289323 0.0319938 0.0391601 0.0537903 0.0803851 0.122018 0.176986 0.243201 
0.317499 0.395799 0.473554 0.545951 0.608273 0.656154 0.685896 0.694662 0.0305824 
0.0312645 0.0318021 0.0322061 0.0324875 0.0326614 0.0327417 0.0327428 0.0326768 0.0325542 
0.0323831 0.0321694 0.0319171 0.0316286 0.0313051 0.0309464 0.0305526 0.0301228 0.029659 
0.029166 0.0286623 0.0281887 0.027852 0.0278784 0.0287829 0.0315954 0.038338 0.0523249 
0.0781347 0.11931 0.174255 0.240848 0.3159 0.395243 0.474226 0.547914 0.611458 
0.660367 0.690834 0.69994 0.0307654 0.0314501 0.0319882 0.0323912 0.0326703 0.032841 
0.0329178 0.0329151 0.0328455 0.0327194 0.0325448 0.0323279 0.0320724 0.0317808 0.0314539 
0.0310918 0.0306941 0.03026 0.0297908 0.0292905 0.0287757 0.0282832 0.0279119 0.027872 
0.0286496 0.0312247 0.0375568 0.0509117 0.0759288 0.116591 0.171488 0.238445 0.314242 
0.39463 0.474853 0.549847 0.614629 0.664583 0.695789 0.70524 0.0309496 0.0316367 
0.0321753 0.0325771 0.0328539 0.0330215 0.0330946 0.0330882 0.0330149 0.0328852 0.0327073 
0.0324871 0.0322285 0.0319336 0.0316035 0.031238 0.0308365 0.0303979 0.0299235 0.0294161 
0.0288907 0.0283804 0.0279765 0.0278743 0.0285316 0.0308806 0.0368151 0.0495513 0.0737721 
0.11386 0.168688 0.235993 0.312526 0.393962 0.475433 0.551748 0.617787 0.668801 
0.700759 0.710563 0.0311348 0.0318243 0.0323634 0.0327641 0.0330384 0.0332027 0.0332722 
0.0332621 0.033185 0.0330518 0.0328705 0.0326471 0.0323853 0.0320873 0.0317539 0.0313848 
0.0309795 0.0305367 0.030057 0.0295428 0.0290071 0.0284801 0.0280453 0.0278848 0.0284279 
0.030562 0.0361112 0.0482432 0.0716706 0.111118 0.165855 0.233493 0.310752 0.393237 
0.475966 0.553618 0.620931 0.673023 0.705745 0.715908 0.031321 0.032013 0.0325525 
0.0329519 0.0332237 0.0333848 0.0334506 0.0334366 0.0333559 0.0332191 0.0330345 0.0328078 
0.0325429 0.0322417 0.031905 0.0315325 0.0311233 0.0306763 0.0301913 0.0296705 0.0291249 
0.0285821 0.0281182 0.027903 0.028338 0.0302679 0.0354446 0.0469858 0.0696253 0.108368 
0.162993 0.230945 0.308918 0.392454 0.476451 0.555456 0.624061 0.677247 0.710746 
0.721276 0.0315083 0.0322028 0.0327426 0.0331407 0.0334099 0.0335676 0.0336297 0.0336119 
0.0335274 0.0333872 0.0331992 0.0329693 0.0327012 0.0323969 0.0320569 0.0316809 0.0312679 
0.0308166 0.0303265 0.0297992 0.0292441 0.0286864 0.028195 0.0279285 0.0282615 0.0299974 
0.0348153 0.0457777 0.0676277 0.105625 0.160104 0.228348 0.307025 0.391614 0.476889 
0.557261 0.627176 0.681474 0.715762 0.726666 0.0316967 0.0323935 0.0329336 0.0333304 
0.033597 0.0337513 0.0338096 0.033788 0.0336998 0.0335559 0.0333646 0.0331315 0.0328603 
0.0325528 0.0322096 0.0318301 0.0314133 0.0309577 0.0304625 0.0299288 0.0293645 0.0287927 
0.0282754 0.0279608 0.0281975 0.0297494 0.0342226 0.0446183 0.0656786 0.102893 0.157192 
0.225703 0.305073 0.390715 0.477277 0.559033 0.630275 0.685702 0.720794 0.732078 
0.0318861 0.0325853 0.0331256 0.0335209 0.0337848 0.0339357 0.0339902 0.0339647 0.0338728 
0.0337254 0.0335308 0.0332946 0.0330202 0.0327096 0.032363 0.0319801 0.0315594 0.0310996 
0.0305993 0.0300595 0.0294863 0.028901 0.0283593 0.0279996 0.0281456 0.0295228 0.0336653 
0.0435074 0.0637778 0.100176 0.154257 0.223011 0.303061 0.389757 0.477616 0.560772 
0.63336 0.689932 0.725841 0.737512 0.0320765 0.0327781 0.0333186 0.0337124 0.0339735 
0.0341209 0.0341715 0.0341422 0.0340465 0.0338957 0.0336977 0.0334583 0.0331809 0.0328671 
0.0325173 0.0321309 0.0317064 0.0312423 0.0307369 0.030191 0.0296093 0.0290112 0.0284464 
0.0280443 0.0281049 0.0293167 0.0331421 0.0424446 0.0619266 0.0974783 0.1513 0.220271 
0.30099 0.38874 0.477905 0.562476 0.636429 0.694164 0.730902 0.742969 0.032268 
0.0329719 0.0335125 0.0339047 0.034163 0.0343068 0.0343536 0.0343204 0.034221 0.0340666 
0.0338654 0.0336229 0.0333423 0.0330254 0.0326723 0.0322824 0.0318541 0.0313858 0.0308754 
0.0303235 0.0297335 0.0291231 0.0285366 0.0280946 0.0280748 0.0291298 0.0326518 0.0414294 
0.0601265 0.094805 0.148321 0.217484 0.29886 0.387664 0.478144 0.564146 0.639481 
0.698397 0.735979 0.748448 0.0324604 0.0331666 0.0337074 0.0340979 0.0343533 0.0344934 
0.0345363 0.0344992 0.0343961 0.0342383 0.0340338 0.0337882 0.0335046 0.0331846 0.0328282 
0.0324348 0.0320026 0.0315301 0.0310148 0.0304569 0.0298588 0.0292366 0.0286296 0.02815 
0.0280546 0.0289612 0.0321931 0.0404612 0.0583788 0.0921602 0.145322 0.214651 0.29667 
0.386528 0.478333 0.565781 0.642518 0.702632 0.74107 0.753949 0.0326538 0.0333623 
0.0339031 0.0342919 0.0345443 0.0346808 0.0347197 0.0346788 0.034572 0.0344107 0.034203 
0.0339543 0.0336676 0.0333445 0.0329849 0.032588 0.032152 0.0316752 0.0311549 0.0305912 
0.0299852 0.0293517 0.0287252 0.0282103 0.0280437 0.0288098 0.0317645 0.0395389 0.0566852 
0.0895489 0.142302 0.211772 0.294421 0.385332 0.47847 0.567381 0.645537 0.706867 
0.746176 0.759471 0.0328482 0.033559 0.0340997 0.0344867 0.0347361 0.0348689 0.0349038 
0.034859 0.0347485 0.0345839 0.034373 0.0341212 0.0338315 0.0335053 0.0331424 0.032742 
0.0323022 0.0318211 0.0312959 0.0307264 0.0301127 0.0294682 0.0288234 0.028275 0.0280415 
0.0286746 0.031365 0.0386615 0.0550467 0.0869765 0.139261 0.208846 0.292113 0.384076 
0.478556 0.568945 0.64854 0.711103 0.751297 0.765016 0.0330436 0.0337566 0.0342972 
0.0346823 0.0349286 0.0350576 0.0350886 0.0350399 0.0349257 0.0347577 0.0345437 0.0342888 
0.0339962 0.0336669 0.0333007 0.0328969 0.0324532 0.0319679 0.0314378 0.0308624 0.0302413 
0.0295861 0.0289239 0.0283438 0.0280475 0.0285545 0.0309932 0.0378273 0.0534645 0.0844486 
0.136198 0.205875 0.289748 0.382759 0.47859 0.570472 0.651525 0.71534 0.756432 
0.770582 0.0332398 0.0339551 0.0344956 0.0348787 0.0351218 0.035247 0.035274 0.0352214 
0.0351036 0.0349323 0.0347151 0.0344573 0.0341616 0.0338293 0.0334599 0.0330526 0.0326051 
0.0321154 0.0315805 0.0309993 0.0303709 0.0297054 0.0290266 0.0284165 0.0280613 0.0284487 
0.0306481 0.0370347 0.0519392 0.0819715 0.133113 0.202859 0.287325 0.381381 0.478573 
0.571963 0.654493 0.719577 0.761581 0.77617 0.033437 0.0341544 0.0346947 0.0350759 
0.0353157 0.0354371 0.0354601 0.0354036 0.0352822 0.0351075 0.0348873 0.0346265 0.0343279 
0.0339925 0.03362 0.0332091 0.0327578 0.0322639 0.0317241 0.0311371 0.0305016 0.029826 
0.0291315 0.0284928 0.0280823 0.0283563 0.0303284 0.0362818 0.0504705 0.079548 0.130008 
0.199798 0.284846 0.379941 0.478502 0.573417 0.657443 0.723814 0.766744 0.781779 
0.0336351 0.0343547 0.0348947 0.0352737 0.0355103 0.0356278 0.0356467 0.0355864 0.0354614 
0.0352835 0.0350602 0.0347965 0.034495 0.0341566 0.0337809 0.0333666 0.0329115 0.0324132 
0.0318686 0.0312758 0.0306333 0.0299478 0.0292384 0.0285725 0.0281102 0.0282767 0.0300331 
0.0355676 0.0490571 0.0771892 0.126877 0.196696 0.282311 0.37844 0.478378 0.574833 
0.660374 0.728051 0.771922 0.78741 0.0338341 0.0345557 0.0350954 0.0354723 0.0357055 
0.035819 0.035834 0.0357697 0.0356413 0.0354601 0.0352338 0.0349673 0.0346629 0.0343216 
0.0339427 0.0335249 0.033066 0.0325634 0.032014 0.0314155 0.030766 0.0300709 0.0293473 
0.0286556 0.0281446 0.0282096 0.0297615 0.0348925 0.0476971 0.0748797 0.123743 0.193555 
0.279719 0.376876 0.4782 0.576211 0.663287 0.732288 0.777113 0.793062 0.0340338 
0.0347576 0.0352968 0.0356715 0.0359013 0.0360109 0.0360218 0.0359537 0.0358218 0.0356374 
0.0354082 0.0351388 0.0348317 0.0344874 0.0341054 0.0336841 0.0332214 0.0327146 0.0321604 
0.0315561 0.0308998 0.0301953 0.029458 0.0287419 0.0281851 0.0281543 0.0295123 0.034256 
0.04639 0.0726216 0.120608 0.190379 0.277069 0.375248 0.477968 0.57755 0.666181 
0.736525 0.782317 0.798735 0.0342344 0.0349602 0.035499 0.0358713 0.0360976 0.0362032 
0.0362101 0.0361382 0.0360029 0.0358154 0.0355833 0.0353112 0.0350013 0.0346541 0.0342689 
0.0338443 0.0333778 0.0328666 0.0323077 0.0316976 0.0310347 0.0303209 0.0295706 0.0288312 
0.0282314 0.0281103 0.0292847 0.0336568 0.0451354 0.0704135 0.117478 0.187168 0.274361 
0.373558 0.47768 0.578851 0.669056 0.74076 0.787535 0.804429 0.0344358 0.0351636 
0.0357018 0.0360718 0.0362945 0.0363961 0.0363989 0.0363233 0.0361846 0.035994 0.0357591 
0.0354843 0.0351716 0.0348216 0.0344334 0.0340053 0.0335351 0.0330196 0.0324559 0.0318402 
0.0311706 0.0304479 0.0296849 0.0289234 0.0282832 0.0280769 0.0290776 0.0330939 0.043933 
0.0682569 0.114358 0.183923 0.271596 0.371804 0.477337 0.580112 0.671911 0.744995 
0.792767 0.810143 0.0346378 0.0353676 0.0359052 0.0362727 0.0364919 0.0365894 0.0365882 
0.0365089 0.0363668 0.0361733 0.0359356 0.0356582 0.0353429 0.03499 0.0345988 0.0341673 
0.0336933 0.0331736 0.0326051 0.0319838 0.0313076 0.030576 0.029801 0.0290184 0.0283401 
0.0280536 0.0288898 0.0325657 0.0427824 0.0661531 0.111251 0.180644 0.268774 0.369986 
0.476938 0.581333 0.674747 0.749229 0.798011 0.815879 0.0348406 0.0355723 0.0361093 
0.0364742 0.0366897 0.0367832 0.036778 0.036695 0.0365496 0.0363532 0.0361129 0.0358328 
0.0355149 0.0351592 0.034765 0.0343302 0.0338526 0.0333286 0.0327553 0.0321284 0.0314456 
0.0307055 0.0299186 0.029116 0.0284018 0.0280397 0.0287205 0.0320709 0.0416832 0.0641039 
0.108163 0.177332 0.265895 0.368103 0.476482 0.582515 0.677563 0.753462 0.803268 
0.821634 0.035044 0.0357776 0.0363138 0.0366762 0.036888 0.0369774 0.0369682 0.0368816 
0.036733 0.0365337 0.0362908 0.0360082 0.0356877 0.0353294 0.0349322 0.0344941 0.0340128 
0.0334846 0.0329066 0.0322741 0.0315848 0.0308362 0.0300379 0.0292162 0.028468 0.0280347 
0.0285685 0.0316083 0.0406346 0.062111 0.105098 0.173988 0.262958 0.366156 0.47597 
0.583656 0.680359 0.757694 0.808539 0.82741 0.0352481 0.0359835 0.0365189 0.0368786 
0.0370866 0.0371719 0.0371588 0.0370686 0.0369168 0.0367148 0.0364693 0.0361843 0.0358614 
0.0355004 0.0351003 0.034659 0.034174 0.0336417 0.0330589 0.0324208 0.0317251 0.0309681 
0.0301587 0.0293188 0.0285384 0.028038 0.0284329 0.0311764 0.0396356 0.0601761 0.102061 
0.170609 0.259964 0.364144 0.475402 0.584757 0.683134 0.761924 0.813822 0.833205 
0.0354527 0.0361899 0.0367244 0.0370813 0.0372856 0.0373668 0.0373497 0.037256 0.0371012 
0.0368964 0.0366485 0.0363612 0.0360359 0.0356723 0.0352694 0.0348248 0.0343362 0.0337997 
0.0332123 0.0325687 0.0318666 0.0311014 0.0302811 0.0294237 0.0286127 0.0280492 0.0283127 
0.030774 0.0386851 0.0583006 0.0990582 0.167197 0.256912 0.362068 0.474775 0.585817 
0.685889 0.766153 0.819117 0.83902 0.0356578 0.0363968 0.0369303 0.0372844 0.0374848 
0.0375619 0.0375409 0.0374437 0.037286 0.0370787 0.0368284 0.0365388 0.0362111 0.0358451 
0.0354394 0.0349917 0.0344995 0.0339589 0.0333668 0.0327177 0.0320092 0.0312359 0.030405 
0.0295308 0.0286907 0.0280677 0.0282069 0.0303997 0.0377816 0.0564859 0.096095 0.163751 
0.253802 0.359928 0.474091 0.586836 0.688624 0.770381 0.824425 0.844855 0.0358634 
0.0366041 0.0371366 0.0374877 0.0376843 0.0377573 0.0377324 0.0376319 0.0374712 0.0372614 
0.0370089 0.0367171 0.0363872 0.0360187 0.0356103 0.0351595 0.0346638 0.0341192 0.0335224 
0.0328679 0.0321529 0.0313718 0.0305303 0.0296401 0.0287722 0.0280933 0.0281146 0.0300524 
0.0369233 0.0547328 0.0931779 0.160269 0.250634 0.357723 0.473348 0.587814 0.691338 
0.774607 0.829745 0.850709 0.0360694 0.0368117 0.0373431 0.0376913 0.0378839 0.0379528 
0.0379242 0.0378203 0.0376568 0.0374446 0.03719 0.0368961 0.0365641 0.0361932 0.0357822 
0.0353284 0.0348292 0.0342806 0.0336792 0.0330193 0.032298 0.031509 0.0306572 0.0297515 
0.028857 0.0281254 0.0280352 0.0297308 0.0361085 0.0530421 0.0903133 0.15675 0.247408 
0.355455 0.472546 0.588751 0.69403 0.778831 0.835077 0.856582 0.0362758 0.0370197 
0.0375499 0.037895 0.0380837 0.0381485 0.0381161 0.038009 0.0378428 0.0376283 0.0373716 
0.0370758 0.0367417 0.0363686 0.035955 0.0354983 0.0349957 0.0344432 0.0338372 0.033172 
0.0324443 0.0316476 0.0307855 0.0298651 0.028945 0.0281639 0.0279677 0.029434 0.0353353 
0.0514135 0.0875046 0.153198 0.244124 0.353124 0.471685 0.589646 0.696702 0.783053 
0.840421 0.862473 0.0364825 0.0372279 0.0377568 0.0380988 0.0382835 0.0383442 0.0383081 
0.0381978 0.0380291 0.0378125 0.0375538 0.0372561 0.0369201 0.0365448 0.0361288 0.0356692 
0.0351633 0.0346069 0.0339964 0.0333259 0.0325919 0.0317877 0.0309155 0.0299807 0.0290361 
0.0282084 0.0279117 0.0291608 0.0346024 0.0498459 0.0847625 0.149606 0.240786 0.35073 
0.470765 0.590499 0.699352 0.787274 0.845776 0.868382 0.0366894 0.0374363 0.0379638 
0.0383027 0.0384834 0.03854 0.0385002 0.0383869 0.0382157 0.037997 0.0377366 0.0374371 
0.0370992 0.0367219 0.0363035 0.0358412 0.035332 0.0347719 0.0341568 0.0334812 0.0327409 
0.0319291 0.031047 0.0300985 0.0291302 0.0282586 0.0278669 0.0289105 0.0339098 0.0483376 
0.0820771 0.145991 0.237394 0.348271 0.469783 0.591309 0.701982 0.791492 0.851142 
0.87431 0.0368965 0.0376448 0.0381709 0.0385065 0.0386831 0.0387357 0.0386924 0.0385761 
0.0384026 0.0381819 0.0379198 0.0376187 0.0372791 0.0368998 0.0364792 0.0360142 0.0355019 
0.034938 0.0343186 0.0336378 0.0328912 0.0320721 0.0311801 0.0302183 0.0292273 0.0283144 
0.0278327 0.0286821 0.0332573 0.0468878 0.0794463 0.142361 0.233951 0.345747 0.468741 
0.592076 0.704589 0.795709 0.85652 0.880255 0.0371037 0.0378533 0.0383779 0.0387102 
0.0388828 0.0389313 0.0388845 0.0387654 0.0385896 0.0383672 0.0381035 0.0378009 0.0374597 
0.0370786 0.0366558 0.0361882 0.0356729 0.0351054 0.0344817 0.0337959 0.0330431 0.0322167 
0.031315 0.0303402 0.0293275 0.0283755 0.0278088 0.0284745 0.0326437 0.0454959 0.0768697 
0.138722 0.230459 0.343156 0.467636 0.5928 0.707175 0.799923 0.861908 0.886217 
0.037311 0.0380618 0.0385849 0.0389138 0.0390822 0.0391268 0.0390765 0.0389547 0.0387769 
0.0385527 0.0382877 0.0379837 0.037641 0.0372582 0.0368333 0.0363634 0.0358451 0.0352741 
0.0346461 0.0339553 0.0331965 0.0323628 0.0314516 0.0304642 0.0294305 0.0284416 0.0277947 
0.028287 0.0320681 0.0441617 0.0743479 0.135078 0.226918 0.340499 0.466469 0.593481 
0.70974 0.804135 0.867307 0.892195 0.0375182 0.0382703 0.0387916 0.0391171 0.0392814 
0.039322 0.0392684 0.039144 0.0389642 0.0387386 0.0384722 0.0381669 0.0378229 0.0374386 
0.0370118 0.0365395 0.0360184 0.0354441 0.0348119 0.0341163 0.0333514 0.0325107 0.03159 
0.0305904 0.0295365 0.0285126 0.0277899 0.0281183 0.0315288 0.0428847 0.0718823 0.131434 
0.223329 0.337775 0.465239 0.594117 0.712283 0.808345 0.872716 0.89819 0.0377253 
0.0384785 0.0389981 0.03932 0.0394803 0.0395169 0.0394601 0.0393332 0.0391516 0.0389246 
0.0386571 0.0383507 0.0380055 0.0376197 0.0371912 0.0367168 0.036193 0.0356153 0.0349792 
0.0342787 0.0335079 0.0326602 0.0317302 0.0307187 0.0296453 0.0285882 0.027794 0.0279677 
0.0310246 0.0416645 0.069475 0.127794 0.21969 0.334984 0.463946 0.59471 0.714804 
0.812553 0.878136 0.9042 0.0379322 0.0386865 0.0392042 0.0395226 0.0396787 0.0397115 
0.0396515 0.0395223 0.039339 0.0391108 0.0388423 0.038535 0.0381888 0.0378017 0.0373716 
0.0368951 0.0363688 0.0357879 0.0351479 0.0344428 0.0336662 0.0328114 0.0318724 0.0308491 
0.0297569 0.0286683 0.0278064 0.0278342 0.0305541 0.0405005 0.0671277 0.124164 0.216003 
0.332125 0.462589 0.595259 0.717304 0.816759 0.883565 0.910226 0.0381389 0.0388942 
0.03941 0.0397246 0.0398766 0.0399056 0.0398426 0.0397112 0.0395264 0.0392971 0.0390278 
0.0387197 0.0383726 0.0379844 0.0375528 0.0370745 0.0365457 0.0359619 0.0353182 0.0346084 
0.0338261 0.0329645 0.0320165 0.0309817 0.0298714 0.0287527 0.0278269 0.0277168 0.0301158 
0.0393918 0.0648427 0.120549 0.212266 0.329198 0.461167 0.595764 0.719784 0.820962 
0.889003 0.916266 0.0383453 0.0391014 0.0396152 0.0399261 0.040074 0.0400992 0.0400333 
0.0398998 0.0397136 0.0394834 0.0392135 0.0389048 0.038557 0.0381678 0.037735 0.0372549 
0.0367239 0.0361372 0.0354899 0.0347757 0.0339879 0.0331194 0.0321627 0.0311165 0.0299886 
0.0288411 0.0278548 0.0276147 0.0297083 0.0383374 0.0626219 0.116953 0.208478 0.326201 
0.459681 0.596225 0.722242 0.825164 0.894451 0.92232 0.0385512 0.0393082 0.0398198 
0.040127 0.0402707 0.0402923 0.0402235 0.0400881 0.0399007 0.0396698 0.0393994 0.0390902 
0.0387419 0.0383519 0.037918 0.0374363 0.0369034 0.0363139 0.0356632 0.0349446 0.0341514 
0.0332763 0.0323109 0.0312535 0.0301087 0.0289336 0.02789 0.027527 0.0293303 0.0373362 
0.0604671 0.113383 0.204638 0.323135 0.45813 0.596641 0.72468 0.829364 0.899908 
0.928387 0.0387566 0.0395143 0.0400237 0.0403271 0.0404667 0.0404846 0.0404132 0.040276 
0.0400876 0.0398561 0.0395854 0.039276 0.0389272 0.0385367 0.0381019 0.0376188 0.037084 
0.0364921 0.0358381 0.0351153 0.0343169 0.0334351 0.0324613 0.0313928 0.0302316 0.0290298 
0.0279321 0.0274529 0.0289805 0.0363865 0.05838 0.109845 0.200746 0.319997 0.456513 
0.597013 0.727097 0.833562 0.905374 0.934467 0.0389614 0.0397198 0.0402269 0.0405264 
0.0406618 0.0406762 0.0406023 0.0404634 0.0402742 0.0400423 0.0397715 0.039462 0.0391131 
0.0387221 0.0382866 0.0378024 0.0372659 0.0366716 0.0360146 0.0352877 0.0344842 0.0335959 
0.0326139 0.0315345 0.0303573 0.0291298 0.0279808 0.0273915 0.0286576 0.0354868 0.0563618 
0.106345 0.1968 0.316788 0.454832 0.59734 0.729495 0.837759 0.910848 0.940559 
0.0391656 0.0399245 0.0404292 0.0407247 0.040856 0.040867 0.0407906 0.0406503 0.0404604 
0.0402284 0.0399576 0.0396482 0.0392993 0.0389081 0.0384721 0.0379869 0.0374491 0.0368526 
0.0361927 0.035462 0.0346536 0.0337589 0.0327688 0.0316785 0.0304859 0.0292334 0.0280359 
0.0273421 0.0283605 0.0346352 0.0544138 0.102892 0.192797 0.313506 0.453085 0.597622 
0.731873 0.841954 0.91633 0.946662 0.0393689 0.0401284 0.0406306 0.040922 0.0410493 
0.0410568 0.0409782 0.0408366 0.0406462 0.0404142 0.0401437 0.0398346 0.0394859 0.0390947 
0.0386584 0.0381725 0.0376334 0.037035 0.0363725 0.035638 0.034825 0.033924 0.032926 
0.031825 0.0306175 0.0293407 0.0280972 0.0273041 0.0280879 0.0338296 0.0525365 0.0994911 
0.188737 0.31015 0.451274 0.597859 0.734232 0.846147 0.92182 0.952775 0.0395715 
0.0403313 0.0408309 0.0411182 0.0412414 0.0412457 0.0411649 0.0410222 0.0408315 0.0405997 
0.0403296 0.040021 0.0396728 0.0392818 0.0388455 0.038359 0.037819 0.0372188 0.036554 
0.035816 0.0349986 0.0340913 0.0330858 0.031974 0.030752 0.0294515 0.0281645 0.0272769 
0.027839 0.0330681 0.0507304 0.0961505 0.184618 0.30672 0.449399 0.598051 0.736571 
0.85034 0.927316 0.958898 0.039773 0.0405331 0.04103 0.0413133 0.0414324 0.0414335 
0.0413507 0.0412071 0.0410163 0.0407848 0.0405154 0.0402075 0.0398599 0.0394694 0.0390332 
0.0385465 0.0380058 0.0374041 0.0367372 0.0359959 0.0351743 0.034261 0.0332481 0.0321257 
0.0308897 0.029566 0.0282377 0.0272599 0.0276128 0.0323485 0.0489946 0.0928721 0.180444 
0.303217 0.447459 0.598197 0.738893 0.854531 0.93282 0.965028 0.0399736 0.0407338 
0.0412279 0.041507 0.041622 0.04162 0.0415354 0.0413911 0.0412004 0.0409694 0.0407009 
0.0403939 0.0400473 0.0396573 0.0392217 0.0387349 0.0381937 0.0375908 0.0369221 0.0361777 
0.0353522 0.0344331 0.033413 0.0322802 0.0310306 0.0296841 0.0283167 0.0272529 0.0274083 
0.0316699 0.047328 0.0896714 0.176206 0.299641 0.445454 0.598298 0.741195 0.858721 
0.938329 0.971165 0.040173 0.0409333 0.0414245 0.0416993 0.0418104 0.0418054 0.0417191 
0.0415741 0.0413837 0.0411536 0.0408861 0.0405803 0.0402347 0.0398457 0.0394108 0.0389242 
0.0383829 0.037779 0.0371088 0.0363615 0.0355324 0.0346076 0.0335807 0.0324375 0.0311747 
0.029806 0.0284016 0.0272557 0.027225 0.0310324 0.045729 0.0865306 0.171929 0.295995 
0.443381 0.598352 0.74348 0.86291 0.943844 0.977308 0.0403712 0.0411314 0.0416196 
0.0418901 0.0419972 0.0419893 0.0419015 0.0417562 0.0415663 0.0413371 0.0410709 0.0407664 
0.0404223 0.0400344 0.0396004 0.0391143 0.0385732 0.0379687 0.0372972 0.0365474 0.0357149 
0.0347846 0.0337512 0.0325977 0.0313223 0.0299317 0.0284921 0.0272681 0.0270619 0.0304355 
0.0441968 0.0834531 0.167615 0.292279 0.44124 0.59836 0.745747 0.867099 0.949363 
0.983455 0.0405681 0.0413282 0.0418132 0.0420794 0.0421825 0.0421719 0.0420827 0.0419372 
0.0417479 0.0415199 0.0412553 0.0409524 0.0406098 0.0402233 0.0397906 0.0393053 0.0387647 
0.0381597 0.0374874 0.0367353 0.0358998 0.0349643 0.0339246 0.0327611 0.0314733 0.0300614 
0.0285883 0.0272898 0.0269184 0.029878 0.0427308 0.0804371 0.163272 0.288493 0.439029 
0.598321 0.747996 0.871287 0.954886 0.989605 0.0407635 0.0415234 0.0420052 0.0422669 
0.0423662 0.0423529 0.0422625 0.042117 0.0419286 0.041702 0.0414391 0.0411379 0.0407973 
0.0404125 0.0399813 0.0394971 0.0389572 0.0383522 0.0376793 0.0369252 0.0360871 0.0351466 
0.034101 0.0329276 0.031628 0.0301951 0.0286902 0.0273207 0.0267935 0.0293587 0.0413304 
0.0774842 0.158905 0.284639 0.436747 0.598235 0.750229 0.875474 0.960413 0.995756 
0.0409575 0.0417169 0.0421954 0.0424527 0.0425481 0.0425322 0.0424409 0.0422955 0.0421082 
0.0418832 0.0416222 0.0413231 0.0409846 0.0406017 0.0401724 0.0396896 0.0391508 0.0385461 
0.037873 0.0371173 0.0362769 0.0353317 0.0342805 0.0330975 0.0317864 0.030333 0.0287978 
0.0273604 0.0266864 0.0288763 0.039995 0.0745964 0.154519 0.280714 0.434395 0.598101 
0.752446 0.879662 0.965942 1.00191 0.0411499 0.0419088 0.0423838 0.0426365 0.0427281 
0.0427099 0.0426176 0.0424727 0.0422866 0.0420635 0.0418047 0.0415078 0.0411716 0.040791 
0.0403638 0.0398827 0.0393455 0.0387413 0.0380685 0.0373115 0.0364691 0.0355196 0.0344632 
0.0332708 0.0319486 0.0304751 0.0289109 0.0274087 0.0265965 0.0284292 0.0387241 0.0717759 
0.150119 0.276717 0.43197 0.597921 0.754647 0.883849 0.971473 1.00805 0.0413406 
0.0420989 0.0425703 0.0428184 0.0429063 0.0428857 0.0427928 0.0426484 0.0424639 0.0422427 
0.0419863 0.041692 0.0413584 0.0409803 0.0405556 0.0400765 0.0395411 0.0389379 0.0382657 
0.0375078 0.0366639 0.0357104 0.0346491 0.0334476 0.0321148 0.0306216 0.0290297 0.0274654 
0.026523 0.028016 0.0375169 0.0690254 0.14571 0.272648 0.429473 0.597694 0.756834 
0.888037 0.977004 1.0142 0.0415296 0.042287 0.0427547 0.0429983 0.0430824 0.0430597 
0.0429663 0.0428226 0.0426397 0.0424208 0.042167 0.0418754 0.0415448 0.0411694 0.0407475 
0.0402708 0.0397376 0.0391359 0.0384646 0.0377062 0.0368613 0.0359041 0.0348384 0.033628 
0.0322851 0.0307725 0.0291541 0.0275302 0.0264652 0.0276352 0.0363724 0.0663476 0.141299 
0.268504 0.426901 0.597419 0.759007 0.892225 0.982534 1.02034 0.0417167 0.0424732 
0.0429371 0.0431759 0.0432563 0.0432316 0.0431379 0.0429952 0.0428142 0.0425977 0.0423467 
0.0420581 0.0417306 0.0413584 0.0409396 0.0404656 0.039935 0.039335 0.0386653 0.0379067 
0.0370613 0.0361008 0.0350312 0.0338122 0.0324596 0.030928 0.0292842 0.027603 0.0264223 
0.0272854 0.0352894 0.0637449 0.13689 0.264283 0.424255 0.597097 0.761168 0.896415 
0.988062 1.02646 0.0419018 0.0426573 0.0431172 0.0433513 0.0434281 0.0434015 0.0433076 
0.043166 0.0429871 0.0427732 0.0425253 0.04224 0.0419159 0.0415471 0.0411317 0.0406608 
0.0401333 0.0395354 0.0388676 0.0381094 0.0372639 0.0363005 0.0352275 0.0340003 0.0326384 
0.0310882 0.02942 0.0276836 0.0263939 0.0269652 0.0342668 0.0612198 0.132492 0.259982 
0.421533 0.596728 0.763316 0.900605 0.993586 1.03258 0.0420849 0.0428392 0.043295 
0.0435243 0.0435976 0.0435692 0.0434753 0.0433351 0.0431584 0.0429474 0.0427027 0.0424209 
0.0421005 0.0417353 0.0413238 0.0408564 0.0403322 0.039737 0.0390716 0.0383142 0.0374691 
0.0365033 0.0354274 0.0341923 0.0328217 0.0312532 0.0295615 0.0277719 0.0263792 0.0266733 
0.0333029 0.0587745 0.12811 0.2556 0.418733 0.596313 0.765453 0.904797 0.999106 
1.03868 0.0422659 0.0430188 0.0434704 0.0436949 0.0437647 0.0437347 0.043641 0.0435022 
0.043328 0.04312 0.0428788 0.0426007 0.0422843 0.0419232 0.0415157 0.0410521 0.0405318 
0.0399397 0.0392771 0.038521 0.0376769 0.0367092 0.0356309 0.0343884 0.0330095 0.0314231 
0.0297089 0.0278678 0.0263778 0.0264085 0.0323961 0.0564111 0.123754 0.251134 0.415854 
0.595852 0.76758 0.908989 1.00462 1.04477 0.0424447 0.0431962 0.0436433 0.0438629 
0.0439293 0.0438978 0.0438045 0.0436674 0.0434958 0.0432911 0.0430536 0.0427794 0.0424673 
0.0421104 0.0417074 0.0412481 0.040732 0.0401433 0.0394842 0.0387299 0.0378874 0.0369182 
0.0358382 0.0345886 0.0332021 0.0315981 0.0298623 0.0279713 0.0263891 0.0261694 0.0315444 
0.0541311 0.119432 0.24658 0.412895 0.595346 0.769697 0.913184 1.01012 1.05083 
0.0426213 0.043371 0.0438136 0.0440283 0.0440913 0.0440585 0.0439657 0.0438305 0.0436617 
0.0434604 0.0432268 0.0429568 0.0426492 0.0422969 0.0418988 0.041444 0.0409327 0.040348 
0.0396928 0.0389408 0.0381005 0.0371305 0.0360493 0.0347932 0.0333996 0.0317784 0.0300217 
0.0280824 0.0264127 0.0259551 0.0307458 0.051936 0.115152 0.241935 0.409854 0.594796 
0.771807 0.917379 1.01561 1.05687 0.0427955 0.0435434 0.0439813 0.044191 0.0442507 
0.0442167 0.0441246 0.0439914 0.0438257 0.0436279 0.0433984 0.0431329 0.0428301 0.0424827 
0.0420897 0.0416399 0.0411338 0.0405535 0.0399028 0.0391537 0.0383162 0.0373459 0.0362642 
0.0350021 0.0336021 0.0319642 0.0301873 0.0282011 0.026448 0.0257644 0.029998 0.0498267 
0.110924 0.237196 0.40673 0.594203 0.773908 0.921575 1.02109 1.06288 0.0429673 
0.0437132 0.0441462 0.0443509 0.0444074 0.0443723 0.0442811 0.0441501 0.0439875 0.0437935 
0.0435684 0.0433075 0.0430097 0.0426675 0.0422801 0.0418357 0.0413351 0.0407598 0.0401142 
0.0393685 0.0385345 0.0375645 0.0364831 0.0352155 0.0338097 0.0321555 0.0303594 0.0283275 
0.026495 0.0255964 0.0292986 0.0478037 0.106758 0.23236 0.403521 0.593568 0.776004 
0.925772 1.02655 1.06886 0.0431366 0.0438804 0.0443084 0.0445079 0.0445613 0.0445253 
0.044435 0.0443064 0.0441472 0.0439571 0.0437365 0.0434805 0.043188 0.0428513 0.0424697 
0.0420311 0.0415366 0.0409667 0.0403268 0.0395852 0.0387553 0.0377863 0.036706 0.0354334 
0.0340227 0.0323526 0.0305381 0.0284617 0.0265532 0.0254504 0.0286454 0.0458672 0.102663 
0.227425 0.400226 0.592894 0.778094 0.92997 1.03199 1.07479 0.0433034 0.0440448 
0.0444676 0.044662 0.0447123 0.0446755 0.0445864 0.0444603 0.0443045 0.0441187 0.0439027 
0.0436518 0.0433648 0.0430339 0.0426586 0.0422261 0.0417382 0.0411742 0.0405405 0.0398036 
0.0389787 0.0380112 0.0369329 0.035656 0.0342413 0.0325558 0.0307236 0.0286038 0.0266227 
0.0253257 0.028036 0.0440165 0.0986462 0.222392 0.396844 0.592182 0.780181 0.934166 
1.0374 1.08069 0.0434676 0.0442064 0.0446238 0.0448131 0.0448604 0.0448229 0.0447352 
0.0446118 0.0444596 0.044278 0.0440668 0.0438212 0.0435401 0.0432153 0.0428465 0.0424206 
0.0419396 0.0413822 0.0407553 0.0400237 0.0392044 0.0382394 0.0371638 0.0358834 0.0344654 
0.032765 0.0309163 0.0287541 0.0267034 0.0252216 0.0274688 0.0422505 0.0947158 0.217259 
0.393378 0.591432 0.782264 0.938362 1.04279 1.08653 0.0436291 0.0443651 0.044777 
0.0449611 0.0450054 0.0449674 0.0448812 0.0447606 0.0446122 0.044435 0.0442289 0.0439888 
0.0437137 0.0433952 0.0430333 0.0426144 0.0421409 0.0415904 0.040971 0.0402454 0.0394326 
0.0384706 0.0373988 0.0361155 0.0346954 0.0329807 0.0311165 0.0289127 0.0267956 0.0251376 
0.0269431 0.0405674 0.0908809 0.212026 0.389827 0.590645 0.784345 0.942553 1.04814 
1.09231 0.0437879 0.0445209 0.0449271 0.045106 0.0451474 0.0451091 0.0450244 0.0449068 
0.0447622 0.0445896 0.0443887 0.0441543 0.0438855 0.0435737 0.043219 0.0428074 0.0423418 
0.0417988 0.0411875 0.0404685 0.039663 0.038705 0.0376378 0.0363525 0.0349314 0.033203 
0.0313245 0.02908 0.0268996 0.0250734 0.026459 0.0389658 0.0871273 0.206718 0.386194 
0.58982 0.786426 0.946741 1.05345 1.09803 0.0439439 0.0446738 0.0450741 0.0452476 
0.0452863 0.0452477 0.0451648 0.0450502 0.0449097 0.0447417 0.0445462 0.0443176 0.0440553 
0.0437504 0.0434033 0.0429994 0.0425422 0.0420073 0.0414047 0.040693 0.0398956 0.0389423 
0.0378809 0.0365944 0.0351735 0.033432 0.0315406 0.0292561 0.0270157 0.0250285 0.026016 
0.0374443 0.0834593 0.201338 0.38248 0.588958 0.788507 0.950922 1.05872 1.10368 
0.0440971 0.0448236 0.0452178 0.045386 0.045422 0.0453832 0.0453022 0.0451908 0.0450544 
0.0448913 0.0447012 0.0444787 0.0442231 0.0439254 0.043586 0.0431903 0.0427419 0.0422156 
0.0416223 0.0409188 0.0401303 0.0391826 0.0381281 0.0368413 0.0354218 0.033668 0.0317653 
0.0294413 0.0271442 0.0250025 0.0256132 0.0360014 0.0798767 0.195896 0.378685 0.588061 
0.790591 0.955094 1.06393 1.10924 0.0442474 0.0449703 0.0453582 0.045521 0.0455544 
0.0455157 0.0454367 0.0453285 0.0451964 0.0450382 0.0448538 0.0446375 0.0443887 0.0440984 
0.0437672 0.04338 0.0429408 0.0424236 0.0418403 0.0411455 0.0403669 0.0394258 0.0383792 
0.0370931 0.0356766 0.0339112 0.0319987 0.0296359 0.0272854 0.0249949 0.0252497 0.0346358 
0.076382 0.190398 0.37481 0.587129 0.792678 0.959255 1.06909 1.11471 0.0443949 
0.0451139 0.0454953 0.0456527 0.0456836 0.045645 0.0455681 0.0454633 0.0453355 0.0451824 
0.0450036 0.0447937 0.044552 0.0442693 0.0439466 0.0435682 0.0431387 0.0426311 0.0420584 
0.0413732 0.0406053 0.0396716 0.0386343 0.0373499 0.0359378 0.0341617 0.0322413 0.0298402 
0.0274397 0.0250053 0.0249243 0.0333462 0.0729782 0.184853 0.370854 0.586167 0.794772 
0.963402 1.07417 1.12008 0.0445394 0.0452543 0.045629 0.0457809 0.0458094 0.0457711 
0.0456964 0.0455951 0.0454717 0.0453237 0.0451508 0.0449473 0.0447128 0.0444381 0.044124 
0.0437548 0.0433354 0.042838 0.0422765 0.0416016 0.0408453 0.0399201 0.0388932 0.0376117 
0.0362056 0.0344197 0.0324934 0.0300544 0.0276075 0.0250333 0.024636 0.032131 0.0696688 
0.179268 0.366818 0.585175 0.796873 0.967532 1.07918 1.12534 0.0446809 0.0453914 
0.0457592 0.0459057 0.0459319 0.0458939 0.0458216 0.0457238 0.0456049 0.0454621 0.0452951 
0.0450983 0.0448712 0.0446045 0.0442993 0.0439396 0.0435307 0.043044 0.0424944 0.0418304 
0.0410867 0.040171 0.0391558 0.0378784 0.03648 0.0346853 0.0327553 0.0302788 0.0277892 
0.0250788 0.0243837 0.0309886 0.0664574 0.173651 0.3627 0.584158 0.798985 0.97164 
1.0841 1.13046 0.0448195 0.0455254 0.045886 0.046027 0.0460509 0.0460135 0.0459435 
0.0458494 0.045735 0.0455975 0.0454365 0.0452464 0.0450268 0.0447684 0.0444724 0.0441225 
0.0437244 0.043249 0.0427118 0.0420596 0.0413293 0.0404241 0.039422 0.0381499 0.0367611 
0.0349587 0.0330274 0.0305139 0.0279853 0.0251414 0.0241665 0.0299172 0.0633475 0.168011 
0.358501 0.583118 0.80111 0.975723 1.08892 1.13544 0.044955 0.045656 0.0460093 
0.0461448 0.0461666 0.0461297 0.0460623 0.0459719 0.045862 0.0457298 0.0455749 0.0453916 
0.0451797 0.0449297 0.044643 0.0443033 0.0439165 0.0434527 0.0429285 0.0422889 0.0415729 
0.0406794 0.0396916 0.0384262 0.0370488 0.0352401 0.0333099 0.0307598 0.0281962 0.025221 
0.0239835 0.0289147 0.0603427 0.162359 0.35422 0.58206 0.80325 0.979775 1.09363 
1.14026 0.0450876 0.0457833 0.046129 0.046259 0.0462788 0.0462426 0.0461778 0.0460911 
0.0459859 0.045859 0.0457102 0.0455339 0.0453296 0.0450882 0.0448111 0.0444818 0.0441065 
0.0436549 0.0431443 0.0425181 0.0418173 0.0409364 0.0399644 0.0387071 0.0373431 0.0355295 
0.0336031 0.0310171 0.0284224 0.0253174 0.023834 0.027979 0.0574459 0.156704 0.349858 
0.580988 0.805408 0.98379 1.09821 1.1449 0.0452171 0.0459073 0.0462452 0.0463696 
0.0463875 0.0463521 0.0462899 0.0462071 0.0461065 0.045985 0.0458424 0.045673 0.0454766 
0.0452439 0.0449765 0.0446579 0.0442945 0.0438555 0.0433589 0.0427468 0.0420621 0.0411952 
0.0402403 0.0389926 0.037644 0.035827 0.0339073 0.0312859 0.0286647 0.0254307 0.0237176 
0.0271077 0.0546601 0.151059 0.345414 0.579909 0.807588 0.987761 1.10264 1.14935 
0.0453436 0.0460279 0.0463578 0.0464766 0.0464927 0.0464582 0.0463988 0.0463197 0.0462238 
0.0461078 0.0459713 0.0458089 0.0456204 0.0453966 0.045139 0.0448313 0.04448 0.0440541 
0.0435722 0.0429748 0.0423071 0.0414552 0.0405188 0.0392824 0.0379514 0.0361326 0.0342227 
0.0315667 0.0289235 0.0255609 0.0236338 0.0262981 0.0519875 0.145434 0.34089 0.578827 
0.809792 0.991681 1.10692 1.15358 0.045467 0.0461451 0.0464667 0.0465801 0.0465944 
0.046561 0.0465043 0.0464291 0.0463378 0.0462272 0.0460969 0.0459416 0.0457609 0.0455461 
0.0452985 0.045002 0.044663 0.0442506 0.0437837 0.043202 0.042552 0.0417164 0.0407998 
0.0395763 0.038265 0.0364465 0.0345496 0.0318599 0.0291997 0.0257082 0.0235826 0.0255476 
0.0494302 0.139844 0.336286 0.577751 0.812024 0.995539 1.11101 1.15757 0.0455874 
0.0462589 0.046572 0.0466799 0.0466926 0.0466603 0.0466064 0.046535 0.0464484 0.0463433 
0.0462192 0.0460709 0.0458982 0.0456923 0.0454549 0.0451696 0.0448433 0.0444447 0.0439933 
0.0434278 0.0427965 0.0419783 0.0410829 0.0398742 0.0385847 0.0367686 0.034888 0.032166 
0.0294939 0.0258727 0.023564 0.0248532 0.0469893 0.134302 0.331606 0.576688 0.814288 
0.999327 1.1149 1.16129 0.0457048 0.0463693 0.0466737 0.0467761 0.0467873 0.0467562 
0.0467052 0.0466376 0.0465557 0.0464559 0.046338 0.0461968 0.046032 0.0458352 0.0456079 
0.0453341 0.0450205 0.0446362 0.0442007 0.0436522 0.0430401 0.0422406 0.0413677 0.0401756 
0.0389103 0.0370988 0.0352382 0.0324853 0.0298068 0.026055 0.0235782 0.0242119 0.044666 
0.128821 0.326854 0.57565 0.816586 1.00303 1.11857 1.16472 0.0458192 0.0464762 
0.0467717 0.0468686 0.0468785 0.0468487 0.0468006 0.0467369 0.0466595 0.0465651 0.0464533 
0.0463191 0.0461623 0.0459746 0.0457574 0.0454952 0.0451946 0.0448248 0.0444055 0.0438747 
0.0432826 0.042503 0.0416539 0.0404804 0.0392414 0.0374372 0.0356001 0.0328183 0.0301392 
0.0262556 0.023626 0.0236208 0.0424607 0.123415 0.322033 0.574647 0.818921 1.00664 
1.12198 1.16783 0.0459305 0.0465797 0.0468661 0.0469575 0.0469662 0.0469377 0.0468925 
0.0468327 0.0467599 0.0466708 0.0465651 0.0464379 0.046289 0.0461104 0.0459034 0.0456529 
0.0453653 0.0450103 0.0446076 0.044095 0.0435236 0.0427651 0.041941 0.0407881 0.0395777 
0.0377836 0.0359739 0.0331655 0.0304921 0.0264751 0.0237082 0.023077 0.0403734 0.118096 
0.317152 0.573694 0.821297 1.01015 1.12511 1.17058 0.0460389 0.0466798 0.0469568 
0.0470429 0.0470504 0.0470234 0.0469811 0.0469251 0.0468569 0.0467731 0.0466734 0.0465531 
0.0464121 0.0462425 0.0460457 0.0458069 0.0455324 0.0451925 0.0448065 0.0443128 0.0437626 
0.0430264 0.0422285 0.0410984 0.0399186 0.0381378 0.0363593 0.0335272 0.030866 0.0267147 
0.0238259 0.022578 0.0384039 0.112876 0.312223 0.572807 0.823715 1.01352 1.12794 
1.17294 0.0461444 0.0467764 0.0470438 0.0471246 0.0471312 0.0471056 0.0470663 0.047014 
0.0469503 0.0468717 0.046778 0.0466646 0.0465313 0.0463708 0.0461841 0.0459571 0.0456957 
0.0453711 0.0450021 0.0445278 0.0439993 0.0432866 0.042516 0.0414108 0.0402639 0.0384997 
0.0367562 0.0339041 0.0312619 0.0269755 0.0239805 0.0221219 0.0365512 0.107755 0.307266 
0.572007 0.826175 1.01676 1.13042 1.17487 0.0462469 0.0468695 0.0471272 0.0472027 
0.0472085 0.0471845 0.0471482 0.0470996 0.0470403 0.0469668 0.046879 0.0467724 0.0466468 
0.0464952 0.0463185 0.0461033 0.0458551 0.0455459 0.045194 0.0447396 0.0442333 0.0435451 
0.0428028 0.0417248 0.0406127 0.0388689 0.0371643 0.0342964 0.0316803 0.027259 0.0241737 
0.0217081 0.0348155 0.102765 0.302272 0.571317 0.828675 1.01983 1.13252 1.17634 
0.0463465 0.0469592 0.0472069 0.0472773 0.0472824 0.04726 0.0472266 0.0471818 0.0471268 
0.0470584 0.0469763 0.0468764 0.0467583 0.0466156 0.0464489 0.0462454 0.0460103 0.0457166 
0.045382 0.0449479 0.0444641 0.0438016 0.0430884 0.0420399 0.0409646 0.039245 0.0375834 
0.0347046 0.0321221 0.0275668 0.0244074 0.0213375 0.0331967 0.0978717 0.297305 0.570763 
0.831211 1.02272 1.13421 1.17729 0.0464432 0.0470454 0.0472829 0.0473483 0.0473529 
0.0473322 0.0473018 0.0472605 0.0472099 0.0471464 0.0470699 0.0469766 0.046866 0.046732 
0.0465751 0.0463833 0.0461612 0.0458831 0.0455656 0.0451523 0.0446912 0.0440555 0.0433723 
0.0423555 0.0413187 0.0396276 0.0380127 0.035129 0.0325876 0.0279007 0.0246838 0.0210111 
0.0316949 0.093079 0.29239 0.570374 0.83378 1.0254 1.13544 1.17769 0.0465372 
0.0471281 0.0473554 0.0474159 0.0474201 0.0474011 0.0473736 0.0473359 0.0472894 0.0472308 
0.0471598 0.0470729 0.0469696 0.0468442 0.046697 0.0465168 0.0463075 0.0460451 0.0457448 
0.0453524 0.0449143 0.0443064 0.0436536 0.0426709 0.0416743 0.0400162 0.0384517 0.0355698 
0.0330774 0.0282627 0.025005 0.0207297 0.0303102 0.0883821 0.287558 0.570181 0.836374 
1.02785 1.13618 1.17748 0.0466283 0.0472073 0.0474243 0.0474799 0.0474839 0.0474667 
0.0474421 0.0474079 0.0473655 0.0473116 0.047246 0.0471655 0.0470693 0.0469523 0.0468146 
0.0466458 0.0464492 0.0462023 0.0459191 0.045548 0.0451329 0.0445536 0.0439319 0.0429854 
0.0420305 0.0404101 0.0388995 0.0360271 0.0335915 0.0286548 0.0253733 0.0204944 0.0290436 
0.0837788 0.282842 0.570216 0.838987 1.03006 1.13636 1.1766 0.0467168 0.0472831 
0.0474895 0.0475406 0.0475445 0.0475291 0.0475074 0.0474766 0.0474382 0.0473889 0.0473286 
0.0472541 0.0471649 0.0470562 0.0469277 0.0467702 0.0465861 0.0463547 0.0460883 0.0457387 
0.0453466 0.0447967 0.0442065 0.0432985 0.0423864 0.0408086 0.0393552 0.0365009 0.03413 
0.0290791 0.0257912 0.0203064 0.0278972 0.0792682 0.278276 0.570512 0.841616 1.03197 
1.13597 1.17501 0.0468025 0.0473553 0.0475512 0.0475978 0.0476019 0.0475883 0.0475694 
0.047542 0.0475075 0.0474626 0.0474074 0.0473389 0.0472564 0.0471558 0.0470364 0.0468899 
0.046718 0.0465019 0.0462523 0.0459241 0.0455549 0.0450351 0.0444765 0.0436091 0.0427409 
0.0412109 0.0398176 0.036991 0.0346926 0.0295378 0.0262612 0.0201674 0.0268741 0.0748508 
0.273888 0.571101 0.844279 1.03356 1.13495 1.17263 0.0468856 0.047424 0.0476094 
0.0476517 0.0476561 0.0476444 0.0476283 0.0476042 0.0475734 0.0475329 0.0474825 0.0474198 
0.0473439 0.0472511 0.0471404 0.0470048 0.0468448 0.0466439 0.0464106 0.046104 0.0457575 
0.0452683 0.0447414 0.0439166 0.043093 0.0416158 0.0402853 0.0374971 0.0352787 0.0300331 
0.0267859 0.02008 0.0259789 0.0705275 0.269703 0.572046 0.846925 1.03481 1.13324 
1.16941 0.0469661 0.0474893 0.0476641 0.0477024 0.0477072 0.0476974 0.0476841 0.0476631 
0.0476359 0.0475996 0.047554 0.0474969 0.0474272 0.047342 0.0472399 0.0471148 0.0469664 
0.0467804 0.0465631 0.0462779 0.0459538 0.0454957 0.0450003 0.0442201 0.0434415 0.0420224 
0.0407567 0.0380185 0.0358872 0.030567 0.0273678 0.0200472 0.0252185 0.0663011 0.265771 
0.573368 0.849552 1.0357 1.1308 1.16526 0.047044 0.047551 0.0477154 0.0477498 
0.0477552 0.0477473 0.0477367 0.0477188 0.0476951 0.0476629 0.0476218 0.0475701 0.0475065 
0.0474286 0.0473347 0.0472198 0.0470828 0.0469113 0.0467097 0.0464457 0.0461435 0.0457168 
0.0452526 0.0445186 0.0437852 0.0424295 0.0412302 0.0385544 0.0365168 0.0311417 0.0280096 
0.0200731 0.0246022 0.0621764 0.262115 0.575079 0.852204 1.03619 1.12756 1.16013 
0.0471195 0.0476092 0.0477632 0.0477941 0.0478002 0.0477943 0.0477863 0.0477714 0.0477511 
0.0477227 0.047686 0.0476394 0.0475817 0.0475109 0.0474249 0.0473199 0.0471937 0.0470365 
0.04685 0.0466069 0.0463261 0.0459311 0.0454976 0.0448113 0.0441228 0.0428356 0.0417038 
0.0391037 0.0371655 0.0317591 0.0287132 0.0201629 0.024141 0.0581586 0.258726 0.577274 
0.854881 1.03624 1.12345 1.15394 0.0471925 0.0476638 0.0478076 0.0478352 0.0478423 
0.0478384 0.047833 0.047821 0.0478039 0.0477791 0.0477466 0.047705 0.0476528 0.0475888 
0.0475104 0.0474149 0.0472992 0.0471557 0.0469839 0.0467614 0.0465015 0.0461379 0.0457346 
0.0450972 0.0444532 0.0432393 0.0421754 0.039665 0.0378309 0.0324209 0.0294802 0.0203226 
0.023847 0.0542525 0.255637 0.580009 0.857585 1.0358 1.11842 1.14662 0.0472631 
0.0477149 0.0478487 0.0478734 0.0478815 0.0478796 0.0478767 0.0478675 0.0478534 0.0478322 
0.0478037 0.0477667 0.0477198 0.0476623 0.0475911 0.0475048 0.0473991 0.047269 0.0471113 
0.0469089 0.0466691 0.0463369 0.0459629 0.0453753 0.0447749 0.043639 0.0426427 0.0402363 
0.03851 0.0331282 0.0303113 0.0205594 0.0237335 0.0504633 0.25288 0.583353 0.860317 
1.03481 1.11239 1.1381 0.0473313 0.0477625 0.0478865 0.0479086 0.047918 0.0479181 
0.0479176 0.047911 0.0478999 0.047882 0.0478572 0.0478248 0.0477829 0.0477315 0.0476672 
0.0475896 0.0474935 0.0473762 0.047232 0.0470492 0.0468288 0.0465274 0.0461818 0.0456446 
0.0450868 0.044033 0.0431033 0.0408157 0.0391991 0.033882 0.0312062 0.0208823 0.0238147 
0.0467974 0.250499 0.587383 0.863071 1.03321 1.10531 1.12833 0.0473971 0.0478065 
0.0479212 0.047941 0.0479517 0.0479538 0.0479557 0.0479516 0.0479433 0.0479286 0.0479073 
0.0478791 0.0478419 0.0477964 0.0477386 0.0476693 0.0475822 0.0474773 0.0473459 0.047182 
0.0469802 0.0467091 0.0463908 0.0459043 0.0453875 0.0444195 0.0435547 0.0414004 0.0398939 
0.0346825 0.0321631 0.0213017 0.0241062 0.0432625 0.248549 0.592177 0.86583 1.03093 
1.0971 1.11725 0.0474606 0.0478469 0.0479526 0.0479706 0.0479828 0.047987 0.047991 
0.0479894 0.0479837 0.047972 0.047954 0.0479297 0.0478971 0.047857 0.0478053 0.0477439 
0.0476654 0.0475721 0.047453 0.0473072 0.047123 0.0468815 0.0465892 0.0461533 0.0456759 
0.0447966 0.0439943 0.0419875 0.0405896 0.0355289 0.0331784 0.0218301 0.0246237 0.0398685 
0.2471 0.597818 0.868572 1.02789 1.0877 1.1048 0.0475217 0.0478837 0.047981 
0.0479976 0.0480113 0.0480175 0.0480237 0.0480244 0.0480211 0.0480122 0.0479974 0.0479768 
0.0479483 0.0479134 0.0478674 0.0478134 0.0477429 0.0476607 0.047553 0.0474245 0.0472571 
0.0470442 0.0467767 0.0463906 0.0459507 0.0451622 0.0444194 0.0425736 0.0412805 0.0364195 
0.0342463 0.0224819 0.0253817 0.036627 0.246238 0.604389 0.871264 1.024 1.07705 
1.09095 0.0475804 0.0479169 0.0480064 0.048022 0.0480373 0.0480456 0.0480538 0.0480567 
0.0480557 0.0480494 0.0480375 0.0480203 0.0479957 0.0479656 0.047925 0.0478778 0.0478149 
0.047743 0.0476461 0.047534 0.0473823 0.0471967 0.0469526 0.0466153 0.0462109 0.0455142 
0.0448273 0.0431547 0.0419608 0.0373514 0.0353586 0.0232737 0.0263916 0.033552 0.246072 
0.611972 0.873861 1.01916 1.06509 1.07566 0.0476368 0.0479467 0.0480288 0.048044 
0.048061 0.0480713 0.0480814 0.0480863 0.0480874 0.0480836 0.0480743 0.0480604 0.0480393 
0.0480136 0.047978 0.0479372 0.0478813 0.0478191 0.0477322 0.0476354 0.0474985 0.0473389 
0.0471167 0.0468267 0.0464554 0.0458506 0.0452156 0.0437263 0.0426238 0.0383197 0.0365038 
0.0242237 0.0276579 0.0306595 0.246739 0.62064 0.876305 1.01328 1.05178 1.05892 
0.0476906 0.0479729 0.0480485 0.0480636 0.0480824 0.0480947 0.0481066 0.0481134 0.0481164 
0.0481148 0.048108 0.048097 0.0480792 0.0480576 0.0480265 0.0479916 0.0479421 0.0478888 
0.0478113 0.0477287 0.0476055 0.0474703 0.0472686 0.0470237 0.0466834 0.0461692 0.0455819 
0.0442835 0.0432631 0.039318 0.0376675 0.0253517 0.0291738 0.0279672 0.24841 0.630457 
0.878519 1.00622 1.03707 1.04073 0.0477417 0.0479954 0.0480652 0.0480809 0.0481014 
0.0481156 0.0481292 0.0481378 0.0481426 0.048143 0.0481384 0.0481301 0.0481153 0.0480974 
0.0480704 0.0480409 0.0479974 0.0479521 0.0478833 0.0478137 0.0477032 0.0475905 0.0474079 
0.0472056 0.0468938 0.0464677 0.0459237 0.0448207 0.0438716 0.0403369 0.0388314 0.0266777 
0.0309155 0.0254932 0.251308 0.641465 0.880405 0.997875 1.02093 1.02111 0.0477904 
0.0480151 0.0480799 0.0480965 0.0481188 0.0481349 0.0481499 0.0481602 0.0481666 0.0481688 
0.0481663 0.0481603 0.0481483 0.0481336 0.0481105 0.0480858 0.0480476 0.0480097 0.0479487 
0.047891 0.0477921 0.0477001 0.047535 0.0473721 0.0470868 0.0467445 0.0462397 0.0453326 
0.0444436 0.0413651 0.0399748 0.0282206 0.0328354 0.0232551 0.25572 0.653671 0.881838 
0.988096 1.00334 1.00009 0.0478378 0.0480332 0.0480938 0.0481119 0.0481358 0.0481537 
0.0481701 0.0481819 0.0481897 0.0481936 0.0481929 0.048189 0.0481794 0.0481677 0.048148 
0.0481276 0.0480943 0.0480629 0.048009 0.0479618 0.0478736 0.0478 0.047651 0.047524 
0.0472631 0.046999 0.0465296 0.0458144 0.0449743 0.042389 0.0410758 0.0299962 0.0348578 
0.0212699 0.262023 0.667037 0.882661 0.976749 0.984289 0.977733 0.0478733 0.0480398 
0.0480969 0.0481171 0.0481425 0.0481621 0.0481797 0.0481928 0.0482019 0.0482073 0.0482081 
0.0482061 0.0481987 0.0481895 0.0481728 0.0481561 0.0481272 0.0481015 0.0480541 0.048016 
0.0479376 0.0478801 0.047746 0.0476506 0.0474124 0.0472192 0.0467823 0.0462498 0.0454493 
0.0433803 0.0421014 0.0320022 0.0368677 0.0195564 0.270723 0.681458 0.882675 0.963693 
0.963795 0.954129 0.0478944 0.0480322 0.0480867 0.0481092 0.048136 0.0481573 0.0481759 
0.0481902 0.0482004 0.0482071 0.0482093 0.0482089 0.0482033 0.0481964 0.0481823 0.0481688 
0.0481438 0.0481228 0.0480812 0.0480508 0.0479812 0.0479372 0.0478169 0.0477484 0.0475313 
0.0474 0.0469935 0.0466283 0.0458601 0.0443112 0.0430211 0.0342141 0.0387078 0.0181297 
0.282496 0.696739 0.881643 0.948796 0.941899 0.929391 0.048041 0.0481508 0.0482035 
0.0482289 0.048257 0.0482799 0.0482995 0.0483149 0.0483261 0.0483338 0.0483373 0.0483382 
0.0483343 0.0483291 0.0483174 0.0483064 0.0482847 0.0482676 0.048231 0.0482067 0.048145 
0.0481118 0.0480039 0.047957 0.0477594 0.0476791 0.0473011 0.0470814 0.0463406 0.0452905 
0.0439447 0.0367117 0.0402989 0.0170508 0.29825 0.712558 0.879266 0.93194 0.918668 
0.903662 0.0481647 0.0482549 0.0483061 0.0483342 0.0483633 0.0483874 0.0484076 0.0484238 
0.0484357 0.0484443 0.0484487 0.0484507 0.0484481 0.0484445 0.0484347 0.0484259 0.0484072 
0.0483931 0.0483612 0.0483418 0.0482875 0.0482626 0.048167 0.0481363 0.0479592 0.0479179 
0.0475719 0.0474701 0.0467657 0.0461658 0.0447617 0.0393405 0.0414868 0.0165649 0.319222 
0.728409 0.875125 0.912957 0.894129 0.877039 0.0465924 0.0466679 0.0467162 0.0467455 
0.046774 0.0467981 0.046818 0.0468341 0.046846 0.0468549 0.0468598 0.0468625 0.0468611 
0.0468586 0.0468508 0.0468437 0.0468281 0.0468166 0.0467897 0.0467741 0.046728 0.0467093 
0.0466276 0.0466083 0.0464557 0.0464411 0.0461378 0.0461206 0.0454811 0.0452489 0.0438525 
0.0403588 0.0408097 0.0162543 0.347199 0.743636 0.86864 0.891623 0.86824 0.84955 
0.0472096 0.0472327 0.0472819 0.047316 0.0473471 0.0473739 0.0473955 0.0474133 0.0474265 
0.0474365 0.0474424 0.0474459 0.0474452 0.0474433 0.0474363 0.0474297 0.0474153 0.0474042 
0.0473792 0.047364 0.0473215 0.0473032 0.0472283 0.0472107 0.0470708 0.0470643 0.0467837 
0.0468089 0.046197 0.0462128 0.0447254 0.0429161 0.0406355 0.0168074 0.384764 0.757634 
0.859475 0.86822 0.841411 0.821657 0.0687239 0.0687511 0.0688194 0.0688727 0.0689184 
0.0689584 0.0689902 0.0690168 0.0690364 0.0690516 0.0690608 0.0690666 0.0690669 0.0690648 
0.0690566 0.0690476 0.0690298 0.0690141 0.0689834 0.0689608 0.0689092 0.0688797 0.0687908 
0.0687568 0.0685938 0.0685655 0.0682416 0.0682506 0.067533 0.0676302 0.0657177 0.0648169 
0.0579553 0.0306573 0.434051 0.769481 0.848427 0.844527 0.815568 0.795267 0.0439613 
0.0440021 0.0440433 0.0440768 0.0441049 0.0441296 0.0441492 0.0441656 0.0441777 0.044187 
0.0441927 0.0441963 0.0441965 0.0441952 0.0441904 0.0441848 0.0441743 0.0441645 0.0441465 
0.044132 0.0441021 0.0440828 0.0440318 0.0440081 0.0439158 0.0438923 0.0437105 0.0437043 
0.0433019 0.0433563 0.0422646 0.0420365 0.0375926 0.0250098 0.486042 0.77443 0.837096 
0.823979 0.79474 0.774283 0.0468192 0.0468685 0.0469112 0.046947 0.0469767 0.0470029 
0.0470236 0.0470411 0.0470539 0.0470638 0.0470699 0.0470737 0.0470741 0.0470728 0.0470679 
0.0470621 0.0470514 0.047041 0.0470225 0.0470073 0.0469767 0.0469561 0.046904 0.0468784 
0.0467845 0.0467581 0.0465738 0.046564 0.0461574 0.046216 0.0451182 0.0450708 0.0406407 
0.0313434 0.519294 0.775316 0.829886 0.81204 0.783091 0.762623 0.0474909 0.0475422 
0.0475847 0.0476213 0.0476515 0.0476783 0.0476993 0.0477171 0.0477302 0.0477403 0.0477466 
0.0477505 0.0477511 0.0477499 0.0477451 0.0477394 0.0477288 0.0477185 0.0477004 0.0476851 
0.0476551 0.0476343 0.0475834 0.0475572 0.0474659 0.0474381 0.0472598 0.0472473 0.0468562 
0.0469184 0.0458805 0.0460518 0.042168 0.0378297 0.55457 0.7743 0.821605 0.799651 
0.771314 0.750927 0.0471955 0.0472516 0.0472931 0.04733 0.04736 0.0473869 0.0474078 
0.0474256 0.0474387 0.0474489 0.0474553 0.0474595 0.0474603 0.0474594 0.0474552 0.0474499 
0.0474401 0.0474305 0.0474135 0.0473992 0.0473711 0.0473514 0.0473039 0.047279 0.0471939 
0.0471676 0.0470021 0.0469916 0.0466311 0.046706 0.0457753 0.0462251 0.043212 0.0453491 
0.591343 0.771439 0.812243 0.786859 0.759389 0.73917 0.0470067 0.0470711 0.0471121 
0.0471497 0.0471799 0.0472071 0.0472283 0.0472464 0.0472598 0.0472705 0.0472776 0.0472825 
0.0472842 0.0472844 0.0472814 0.0472776 0.0472697 0.0472621 0.0472478 0.0472361 0.0472121 
0.0471962 0.047155 0.0471356 0.0470611 0.0470431 0.0468976 0.0469016 0.0465852 0.0467002 
0.0459113 0.0467234 0.0447852 0.055014 0.62903 0.766729 0.801905 0.773801 0.747421 
0.727447 0.0467195 0.046796 0.0468373 0.046876 0.0469069 0.0469349 0.046957 0.0469764 
0.0469912 0.0470036 0.0470127 0.04702 0.0470247 0.0470282 0.0470292 0.0470299 0.0470274 
0.0470259 0.0470191 0.0470159 0.0470025 0.0469985 0.0469731 0.0469711 0.0469217 0.046931 
0.046829 0.0468809 0.0466514 0.0468756 0.0463225 0.0476691 0.0471399 0.0677058 0.66669 
0.760192 0.790699 0.76059 0.735497 0.715827 0.0452027 0.0452936 0.0453353 0.0453753 
0.0454072 0.045437 0.0454613 0.0454837 0.0455024 0.0455196 0.0455346 0.0455489 0.0455618 
0.0455749 0.0455872 0.0456009 0.0456137 0.0456297 0.0456438 0.0456646 0.0456804 0.0457103 
0.0457274 0.0457752 0.0457915 0.0458785 0.0458862 0.046073 0.0460512 0.0465589 0.0465006 
0.048806 0.0503962 0.0844966 0.701779 0.751611 0.778441 0.747077 0.72346 0.704154 
0.043549 0.0436572 0.0437033 0.0437484 0.0437853 0.0438215 0.043854 0.0438867 0.0439182 
0.043951 0.0439846 0.0440207 0.0440593 0.0441022 0.0441491 0.0442028 0.044262 0.0443319 
0.0444092 0.0445038 0.0446076 0.0447417 0.044886 0.0450873 0.0452971 0.0456254 0.0459508 
0.0465565 0.0471202 0.048494 0.0497486 0.0546111 0.0606847 0.11826 0.728252 0.74022 
0.764152 0.732473 0.710542 0.691705 0.0634613 0.0636794 0.063771 0.0638626 0.0639424 
0.0640281 0.0641161 0.0642142 0.064322 0.0644441 0.0645814 0.0647377 0.0649148 0.0651172 
0.0653475 0.0656129 0.065916 0.0662695 0.0666758 0.067158 0.0677168 0.0683974 0.0691938 
0.0702015 0.0713942 0.0729934 0.074912 0.077736 0.0811848 0.0871696 0.0947594 0.113225 
0.140209 0.303166 0.744209 0.721498 0.742039 0.711477 0.69196 0.673948 0.0439297 
0.0442789 0.0444119 0.0445395 0.0446519 0.0447773 0.0449143 0.0450732 0.0452563 0.045469 
0.045715 0.0459989 0.0463256 0.0467014 0.0471329 0.0476301 0.0482023 0.0488662 0.0496356 
0.0505393 0.0515982 0.0528656 0.0543739 0.0562298 0.0584848 0.0613803 0.0649953 0.069977 
0.0764266 0.0865604 0.100428 0.129216 0.173208 0.354166 0.710305 0.686203 0.704881 
0.678971 0.663139 0.646672 0.0460839 0.0466166 0.0468251 0.0470148 0.0471735 0.0473433 
0.0475232 0.0477274 0.04796 0.0482281 0.0485373 0.0488936 0.0493037 0.0497756 0.050318 
0.0509434 0.0516642 0.0525005 0.0534712 0.0546107 0.0559486 0.0575473 0.0594549 0.0617955 
0.0646506 0.0682979 0.0728807 0.079137 0.0873238 0.0999438 0.11749 0.152157 0.205102 
0.378426 0.662503 0.647253 0.667224 0.647131 0.635069 0.620179 0.0464389 0.0470958 
0.0473793 0.0476301 0.047832 0.0480396 0.0482525 0.0484888 0.0487541 0.0490574 0.0494055 
0.0498061 0.0502671 0.0507979 0.0514088 0.0521139 0.0529279 0.0538733 0.0549723 0.0562633 
0.0577812 0.0595954 0.061764 0.0644231 0.0676742 0.0718197 0.077046 0.0841469 0.0934862 
0.1077 0.127558 0.165177 0.221753 0.376556 0.609329 0.606588 0.62955 0.615678 
0.607324 0.594001 0.0464359 0.0471985 0.0475555 0.0478659 0.0481098 0.0483523 0.0485935 
0.0488552 0.0491442 0.0494713 0.0498447 0.0502731 0.0507656 0.0513327 0.051986 0.0527407 
0.053613 0.054627 0.0558075 0.0571949 0.0588286 0.0607815 0.0631194 0.0659853 0.0694957 
0.0739652 0.0796141 0.087257 0.0973407 0.112496 0.133689 0.172151 0.229114 0.36201 
0.556925 0.566422 0.592689 0.584838 0.579941 0.568127 0.0466056 0.0474512 0.0478789 
0.0482474 0.0485332 0.0488098 0.049078 0.0493629 0.0496726 0.0500195 0.0504131 0.0508632 
0.0513799 0.0519748 0.0526603 0.0534528 0.0543696 0.0554363 0.0566792 0.0581408 0.0598635 
0.061923 0.0643908 0.0674145 0.071122 0.0758346 0.0817981 0.0898286 0.100435 0.116157 
0.138095 0.176193 0.231868 0.344534 0.509083 0.528368 0.557422 0.554968 0.553139 
0.542729 0.0467951 0.047705 0.0481996 0.0486239 0.0489515 0.0492619 0.049557 0.0498645 
0.0501941 0.0505596 0.0509718 0.0514413 0.0519796 0.0525989 0.0533128 0.0541384 0.0550942 
0.0562069 0.0575044 0.0590305 0.0608304 0.062982 0.0655616 0.0687195 0.0725935 0.0775068 
0.0837259 0.0920544 0.103047 0.119098 0.141396 0.178441 0.23194 0.327552 0.466991 
0.493212 0.524184 0.526292 0.527074 0.517935 0.0470132 0.0479734 0.0485305 0.0490077 
0.0493768 0.0497209 0.0500431 0.0503735 0.050723 0.0511069 0.0515372 0.0520257 0.0525847 
0.0532273 0.0539681 0.0548249 0.0558174 0.0569732 0.0583215 0.0599078 0.0617791 0.0640153 
0.0666969 0.0699758 0.073998 0.0790856 0.0855214 0.0940857 0.105367 0.121575 0.143956 
0.179558 0.230398 0.312079 0.430581 0.461195 0.49316 0.498939 0.501859 0.493847 
0.0472598 0.0482596 0.0488747 0.0494019 0.0498119 0.0501896 0.0505392 0.0508928 0.0512626 
0.0516653 0.052114 0.0526216 0.0532013 0.0538672 0.0546345 0.055522 0.0565505 0.0577482 
0.0591461 0.0607902 0.0627303 0.0650471 0.0678249 0.0712166 0.0753748 0.0806179 0.0872414 
0.0959938 0.107485 0.123721 0.145975 0.179933 0.227865 0.298275 0.39927 0.432248 
0.464377 0.472975 0.477578 0.470548 0.0475319 0.0485635 0.0492321 0.0498062 0.0502565 
0.0506674 0.0510448 0.0514219 0.0518126 0.0522346 0.0527023 0.0532293 0.0538301 0.0545193 
0.0553134 0.0562316 0.0572959 0.0585351 0.0599816 0.0616826 0.0636894 0.0660839 0.0689536 
0.0724515 0.0767355 0.0821181 0.0889036 0.0978026 0.109436 0.125594 0.147553 0.179782 
0.224698 0.285967 0.372317 0.406143 0.437767 0.448422 0.45429 0.448105 0.0478282 
0.0488857 0.0496036 0.0502216 0.0507111 0.051155 0.0515603 0.0519614 0.0523734 0.0528152 
0.0533023 0.0538494 0.0544716 0.0551847 0.0560056 0.0569548 0.0580547 0.0593352 0.0608298 
0.0625864 0.0646584 0.067128 0.0700856 0.0736832 0.0780831 0.0835895 0.0905124 0.0995188 
0.111232 0.127224 0.148751 0.17923 0.221116 0.274902 0.348999 0.382598 0.413214 
0.42527 0.432036 0.426568 0.0481473 0.0492267 0.0499899 0.0506488 0.0511765 0.0516527 
0.052086 0.0525113 0.0529451 0.0534073 0.0539144 0.0544819 0.0551261 0.0558632 0.0567114 
0.0576915 0.058827 0.0601486 0.0616906 0.0635019 0.0656371 0.068179 0.0712201 0.0749108 
0.0794161 0.0850305 0.0920656 0.101142 0.112875 0.128626 0.14961 0.17836 0.217266 
0.264847 0.328687 0.361323 0.390578 0.403489 0.410835 0.405971 0.0484884 0.0495866 
0.0503913 0.0510884 0.051653 0.0521609 0.0526222 0.053072 0.053528 0.0540109 0.0545384 
0.0551268 0.0557933 0.0565549 0.0574305 0.0584416 0.0596126 0.0609747 0.0625635 0.064428 
0.0666244 0.0692354 0.0723551 0.0761315 0.0807313 0.0864371 0.0935591 0.102669 0.114366 
0.129813 0.150162 0.177226 0.213248 0.255615 0.310855 0.342051 0.369713 0.383036 
0.390696 0.386334 0.0488506 0.0499654 0.0508084 0.0515411 0.0521412 0.05268 0.0531692 
0.0536435 0.054122 0.0546261 0.0551744 0.0557841 0.0564732 0.0572595 0.0581626 0.0592046 
0.0604109 0.061813 0.0634474 0.0653636 0.0676187 0.0702952 0.0734881 0.0773424 0.0820248 
0.0878049 0.0949879 0.104096 0.115704 0.130793 0.150437 0.175873 0.209137 0.247064 
0.295076 0.324541 0.350475 0.363858 0.371614 0.367666 0.0492334 0.0503634 0.0512414 
0.0520073 0.0526416 0.0532105 0.0537273 0.0542261 0.0547273 0.0552528 0.0558223 0.0564536 
0.0571655 0.0579766 0.0589072 0.0599801 0.0612211 0.0626624 0.0643413 0.0663073 0.0686184 
0.0713562 0.0746163 0.0785399 0.0832923 0.0891291 0.0963474 0.10542 0.116891 0.131577 
0.15046 0.174332 0.204987 0.239089 0.281003 0.308583 0.332728 0.345897 0.353574 
0.349964 0.0496363 0.0507802 0.0516907 0.0524875 0.0531546 0.0537527 0.0542966 0.0548199 
0.055344 0.0558911 0.0564819 0.057135 0.05787 0.058706 0.059664 0.0607673 0.0620425 
0.0635221 0.0652438 0.0672575 0.0696213 0.0724159 0.0757367 0.0797205 0.0845299 0.0904054 
0.0976333 0.106638 0.117928 0.132174 0.150259 0.172635 0.20084 0.231609 0.26836 
0.293994 0.316343 0.329093 0.336554 0.333218 0.0500589 0.051216 0.0521564 0.0529822 
0.0536806 0.0543069 0.0548776 0.0554251 0.055972 0.0565408 0.0571532 0.0578282 0.0585863 
0.0594471 0.0604323 0.0615657 0.0628742 0.0643909 0.0661538 0.0682125 0.0706254 0.0734719 
0.0768464 0.0808807 0.0857334 0.0916297 0.0988421 0.107749 0.118819 0.132595 0.149857 
0.170807 0.196726 0.224564 0.256923 0.280616 0.301202 0.313384 0.320523 0.317408 
0.0505008 0.0516706 0.0526387 0.0534916 0.0542199 0.0548734 0.0554703 0.0560417 0.0566113 
0.0572019 0.0578358 0.0585328 0.059314 0.0601995 0.0612115 0.0623742 0.0637153 0.0652675 
0.0670696 0.0691705 0.0716287 0.0745216 0.0779422 0.082017 0.0868993 0.0927982 0.099971 
0.108751 0.119567 0.13285 0.149276 0.168869 0.192667 0.217907 0.246511 0.268313 
0.287197 0.298706 0.305449 0.302511 0.0509618 0.0521438 0.0531377 0.0540161 0.0547727 
0.0554525 0.0560749 0.0566698 0.057262 0.0578742 0.0585297 0.0592486 0.0600527 0.0609625 
0.0620008 0.0631922 0.0645645 0.0661508 0.0679897 0.0701297 0.0726287 0.0755623 0.0790212 
0.083126 0.0880238 0.0939077 0.101018 0.109646 0.120177 0.132949 0.148538 0.166842 
0.18868 0.211602 0.236977 0.256966 0.274227 0.284999 0.291294 0.288496 0.0514415 
0.0526355 0.0536535 0.0545558 0.0553394 0.0560444 0.0566915 0.0573096 0.057924 0.0585576 
0.0592345 0.0599751 0.0608018 0.0617355 0.0627996 0.0640187 0.0654209 0.0670393 0.0689124 
0.0710881 0.0736234 0.0765914 0.0800804 0.0842047 0.089104 0.0949554 0.101981 0.110434 
0.120655 0.132904 0.147662 0.164745 0.184775 0.205618 0.228202 0.246475 0.262202 
0.272202 0.278016 0.275329 0.0519397 0.0531455 0.0541861 0.0551108 0.0559201 0.0566492 
0.0573203 0.0579608 0.0585971 0.0592519 0.0599499 0.060712 0.0615609 0.062518 0.0636069 
0.0648525 0.0662832 0.0679317 0.0698362 0.0720438 0.0746104 0.0776064 0.081117 0.0852499 
0.0901368 0.0959391 0.102859 0.111116 0.121007 0.132727 0.146666 0.162594 0.180961 
0.19993 0.220088 0.23675 0.251041 0.260256 0.265574 0.262974 0.0524562 0.0536736 
0.0547355 0.0556814 0.056515 0.057267 0.0579613 0.0586237 0.0592813 0.0599569 0.0606756 
0.0614586 0.0623292 0.063309 0.0644218 0.0656928 0.0671501 0.0688263 0.0707592 0.0729947 
0.0755873 0.0786047 0.0821282 0.0862589 0.0911199 0.096857 0.103654 0.111696 0.12124 
0.132427 0.145567 0.160403 0.177242 0.194517 0.212556 0.227717 0.24067 0.249106 
0.253925 0.251394 0.0529906 0.0542196 0.0553015 0.0562674 0.057124 0.057898 0.0586144 
0.059298 0.0599764 0.0606722 0.0614112 0.0622146 0.0631062 0.0641078 0.0652435 0.0665382 
0.0680202 0.0697216 0.0716796 0.0739387 0.0765519 0.0795837 0.0831115 0.0872291 0.0920509 
0.0977078 0.104364 0.112176 0.12136 0.132015 0.14438 0.158185 0.173623 0.189362 
0.205538 0.219307 0.231021 0.238699 0.243025 0.240549 0.0535427 0.0547831 0.0558841 
0.0568689 0.0577471 0.058542 0.0592797 0.0599836 0.060682 0.0613975 0.0621561 0.0629793 
0.0638911 0.0649135 0.0660707 0.0673875 0.0688921 0.0706159 0.0725955 0.0748739 0.077502 
0.080541 0.0840642 0.0881583 0.0929283 0.0984907 0.104991 0.112559 0.121376 0.131503 
0.143118 0.155953 0.170104 0.184448 0.19898 0.211465 0.222036 0.228984 0.232832 
0.230399 0.0541122 0.0553641 0.0564831 0.0574858 0.0583844 0.0591991 0.059957 0.0606803 
0.061398 0.0621324 0.0629099 0.063752 0.0646831 0.0657252 0.0669024 0.0682396 0.0697644 
0.0715077 0.0735051 0.075798 0.0784352 0.0814744 0.0849843 0.0890445 0.0937507 0.0992056 
0.105536 0.112849 0.121293 0.130899 0.141794 0.153715 0.166688 0.179762 0.192835 
0.204138 0.213658 0.219913 0.223303 0.220906 0.0546986 0.055962 0.0570982 0.0581178 
0.0590357 0.0598691 0.0606461 0.0613879 0.0621241 0.0628764 0.0636719 0.0645321 0.0654814 
0.0665418 0.0677375 0.069093 0.0706356 0.0723952 0.0744065 0.0767091 0.0793495 0.0823817 
0.0858697 0.089886 0.0945169 0.0998524 0.106002 0.113052 0.121119 0.130215 0.140419 
0.151482 0.163373 0.175289 0.187064 0.197284 0.205841 0.211442 0.214398 0.21203 
0.0553017 0.0565766 0.0577292 0.0587648 0.0597008 0.0605517 0.0613468 0.0621061 0.0628597 
0.0636292 0.0644417 0.0653188 0.0662851 0.0673624 0.0685748 0.0699464 0.071504 0.0732768 
0.0752979 0.0776052 0.0802428 0.0832609 0.0867185 0.0906814 0.0952266 0.100432 0.10639 
0.11317 0.120862 0.129459 0.139004 0.149262 0.16016 0.17102 0.181635 0.190862 
0.198539 0.20353 0.206079 0.203736 0.0559211 0.0572074 0.0583757 0.0594265 0.0603794 
0.0612468 0.0620587 0.0628345 0.0636044 0.0643899 0.0652184 0.0661113 0.0670932 0.0681858 
0.069413 0.0707984 0.0723682 0.0741506 0.0761774 0.0784845 0.0811131 0.08411 0.0875292 
0.0914296 0.0958794 0.100945 0.106705 0.11321 0.120529 0.128641 0.137557 0.147061 
0.157048 0.166944 0.176518 0.18484 0.191712 0.196137 0.198306 0.195985 0.0565562 
0.057854 0.0590374 0.0601024 0.0610712 0.0619539 0.0627816 0.0635726 0.0643577 0.0651582 
0.0660013 0.0669087 0.0679047 0.0690109 0.0702508 0.0716475 0.0732266 0.075015 0.0770431 
0.0793449 0.0819587 0.0849276 0.0883005 0.0921299 0.0964755 0.101393 0.106947 0.113176 
0.120127 0.127768 0.136088 0.144885 0.154036 0.163051 0.17169 0.179185 0.185326 
0.189227 0.191045 0.188743 0.0572066 0.058516 0.0597137 0.0607923 0.0617758 0.0626727 
0.0635149 0.06432 0.0651191 0.0659332 0.0667897 0.0677101 0.0687185 0.0698364 0.0710868 
0.0724924 0.0740775 0.0758683 0.0778935 0.0801848 0.0827779 0.085712 0.0890313 0.0927819 
0.0970154 0.101778 0.107122 0.113073 0.119662 0.126849 0.134604 0.14274 0.151124 
0.159333 0.16713 0.173871 0.179346 0.182767 0.184261 0.181978 0.0578718 0.0591926 
0.0604042 0.0614955 0.0624927 0.0634026 0.064258 0.065076 0.0658878 0.0667142 0.0675827 
0.0685145 0.0695337 0.0706612 0.0719199 0.0733314 0.0749195 0.0767089 0.0787268 0.0810026 
0.0835692 0.0864621 0.0897208 0.0933854 0.0974999 0.102102 0.107233 0.112907 0.119142 
0.125891 0.133112 0.140631 0.148309 0.155782 0.162818 0.168874 0.173744 0.176725 
0.177922 0.175657 0.058551 0.0598834 0.0611082 0.0622116 0.0632214 0.0641432 0.0650105 
0.06584 0.0666631 0.0675004 0.0683793 0.0693209 0.0703489 0.0714841 0.0727485 0.0741632 
0.075751 0.0775352 0.0795413 0.0817967 0.0843312 0.0871769 0.0903684 0.0939406 0.0979301 
0.102367 0.107282 0.112682 0.118572 0.124901 0.131617 0.138561 0.14559 0.15239 
0.158739 0.164171 0.168493 0.171072 0.171999 0.169751 0.0592437 0.0605877 0.0618252 
0.0629398 0.0639611 0.0648937 0.0657717 0.0666113 0.0674442 0.0682909 0.0691786 0.0701282 
0.0711631 0.0723037 0.0735713 0.0749863 0.0765705 0.0783457 0.0803358 0.0825657 0.0850629 
0.0878555 0.090974 0.0944479 0.0983074 0.102576 0.107275 0.112404 0.117959 0.123886 
0.130127 0.136534 0.142967 0.149151 0.154877 0.159743 0.163568 0.165781 0.166464 
0.164233 0.0599491 0.0613047 0.0625544 0.0636795 0.0647112 0.0656534 0.0665407 0.0673891 
0.0682304 0.0690848 0.0699796 0.0709353 0.0719751 0.0731187 0.074387 0.0757994 0.0773764 
0.0791389 0.0811086 0.0833085 0.0857631 0.0884973 0.0915374 0.094908 0.0986335 0.102731 
0.107214 0.112078 0.117309 0.122852 0.128645 0.134552 0.140438 0.146059 0.151221 
0.155572 0.158946 0.160828 0.161289 0.159075 0.0606664 0.0620336 0.063295 0.0644299 
0.065471 0.0664215 0.0673168 0.0681725 0.0690206 0.0698811 0.0707812 0.0717411 0.0727837 
0.073928 0.0751942 0.0766009 0.0781676 0.0799134 0.0818586 0.084024 0.0864312 0.0891021 
0.0920589 0.095322 0.0989102 0.102835 0.107105 0.111708 0.116626 0.121805 0.127177 
0.132619 0.138001 0.143106 0.147757 0.151641 0.154608 0.15619 0.15645 0.154254 
0.0613948 0.0627736 0.0640461 0.06519 0.0662395 0.0671972 0.068099 0.0689605 0.0698138 
0.0706788 0.0715824 0.0725445 0.0735875 0.0747301 0.0759915 0.0773896 0.0789425 0.080668 
0.0825848 0.0847112 0.0870666 0.0896696 0.092539 0.0956909 0.0991395 0.102892 0.10695 
0.1113 0.115917 0.120749 0.125727 0.130736 0.135654 0.140289 0.144475 0.147936 
0.150534 0.151845 0.151924 0.149746 0.0621334 0.0635237 0.0648068 0.065959 0.0670158 
0.0679795 0.0688865 0.0697523 0.0706091 0.0714767 0.0723819 0.0733441 0.0743854 0.0755237 
0.0767777 0.0781641 0.0796999 0.0814016 0.083286 0.0853695 0.0876688 0.0902 0.0929782 
0.0960161 0.0993238 0.102904 0.106755 0.110858 0.115187 0.119689 0.124297 0.128904 
0.133397 0.137601 0.141365 0.144442 0.146707 0.147774 0.147691 0.14553 0.0628811 
0.0642829 0.0655762 0.0667359 0.0677989 0.0687673 0.0696781 0.0705467 0.0714054 0.0722738 
0.0731786 0.0741389 0.0751762 0.0763078 0.0775515 0.0789232 0.0804388 0.0821132 0.0839614 
0.0859982 0.0882377 0.0906935 0.0933776 0.0962994 0.0994652 0.102875 0.106522 0.110386 
0.11444 0.11863 0.122891 0.127126 0.131227 0.135037 0.138418 0.141147 0.143112 
0.143958 0.14373 0.141587 0.0636369 0.0650502 0.066353 0.0675196 0.0685877 0.0695597 
0.0704727 0.0713426 0.0722014 0.0730689 0.0739713 0.0749275 0.0759585 0.0770809 0.0783117 
0.0796658 0.081158 0.0828017 0.0846104 0.0865969 0.0887733 0.0911506 0.0937381 0.0965423 
0.0995663 0.102807 0.106255 0.10989 0.11368 0.117575 0.121513 0.125402 0.129143 
0.132593 0.135626 0.13804 0.139733 0.140381 0.140023 0.137898 0.0643996 0.0658243 
0.0671363 0.0683089 0.0693811 0.0703554 0.0712693 0.0721388 0.0729961 0.0738608 0.0747588 
0.0757089 0.0767312 0.0778419 0.0790571 0.0803908 0.0818565 0.0834664 0.0852324 0.0871655 
0.0892758 0.0915719 0.0940609 0.0967467 0.0996297 0.102704 0.105959 0.109372 0.112911 
0.116529 0.120164 0.123733 0.127143 0.130264 0.13298 0.135109 0.136557 0.137027 
0.136553 0.134446 0.0651682 0.0666042 0.0679247 0.0691026 0.0701779 0.0711532 0.0720666 
0.0729342 0.0737882 0.0746482 0.0755399 0.0764816 0.077493 0.0785896 0.0797867 0.0810972 
0.0825336 0.0841067 0.085827 0.0877039 0.0897454 0.0919584 0.0943476 0.0969147 0.0996579 
0.10257 0.105637 0.108837 0.112138 0.115494 0.118847 0.12212 0.125225 0.128045 
0.130475 0.132345 0.133571 0.133882 0.133305 0.131215 0.0659414 0.0673886 0.0687171 
0.0698995 0.0709768 0.0719519 0.0728633 0.0737274 0.0745764 0.0754299 0.0763133 0.0772446 
0.0782428 0.0793229 0.0804994 0.0817841 0.0831884 0.084722 0.086394 0.0882121 0.0901828 
0.092311 0.0945995 0.0970483 0.0996536 0.102407 0.105293 0.108289 0.111364 0.114474 
0.117564 0.120562 0.123388 0.125933 0.128102 0.129738 0.130765 0.130932 0.130263 
0.12819 0.0667178 0.0681761 0.069512 0.0706982 0.0717764 0.0727502 0.0736582 0.0745172 
0.0753595 0.0762047 0.0770778 0.0779966 0.0789795 0.0800408 0.0811942 0.0824506 0.0838204 
0.085312 0.0869333 0.0886904 0.0905885 0.0926307 0.0948183 0.0971496 0.0996193 0.102218 
0.104929 0.10773 0.110592 0.11347 0.116316 0.11906 0.121629 0.123924 0.125855 
0.12728 0.128126 0.128165 0.127414 0.125359 0.0674961 0.0689654 0.0703082 0.0714974 
0.0725755 0.0735466 0.0744498 0.0753022 0.0761362 0.0769712 0.0778323 0.0787365 0.079702 
0.0807423 0.0818703 0.0830961 0.084429 0.0858764 0.0874448 0.0891392 0.0909633 0.0929189 
0.0950058 0.0972208 0.0995578 0.102006 0.104549 0.107165 0.109824 0.112486 0.115103 
0.117613 0.119947 0.122013 0.123728 0.124962 0.125646 0.125569 0.124746 0.122708 
0.068275 0.0697551 0.0711042 0.0722957 0.0733726 0.0743399 0.0752369 0.0760812 0.0769051 
0.0777283 0.0785754 0.0794632 0.0804092 0.0814264 0.0825269 0.08372 0.0850139 0.086415 
0.0879288 0.0895591 0.0913082 0.0931768 0.0951636 0.0972642 0.0994717 0.101774 0.104157 
0.106596 0.109064 0.111523 0.113929 0.116222 0.11834 0.120196 0.121716 0.122776 
0.123315 0.123135 0.122247 0.120226 0.069053 0.0705437 0.0718986 0.0730915 0.0741663 
0.0751286 0.0760181 0.0768528 0.0776651 0.0784747 0.079306 0.0801755 0.0811002 0.0820924 
0.0831634 0.0843217 0.0855747 0.0869279 0.0883856 0.0899506 0.0916242 0.093406 0.0952936 
0.097282 0.0993633 0.101526 0.103754 0.106026 0.108314 0.110584 0.112793 0.114886 
0.116805 0.118471 0.119813 0.120717 0.121124 0.120851 0.119907 0.117902 0.0698287 
0.0713298 0.0726899 0.0738835 0.0749551 0.0759113 0.0767919 0.0776156 0.0784147 0.0792092 
0.0800231 0.0808725 0.081774 0.0827393 0.083779 0.0849009 0.0861114 0.0874151 0.0888156 
0.0903145 0.0919124 0.0936078 0.0953977 0.0972763 0.0992354 0.101263 0.103344 0.105457 
0.107576 0.109669 0.111695 0.113604 0.115342 0.116834 0.118014 0.118776 0.119065 
0.11871 0.117715 0.115726 0.0706005 0.0721119 0.0734767 0.0746702 0.0757377 0.0766865 
0.077557 0.0783683 0.0791528 0.0799307 0.0807254 0.0815532 0.0824298 0.0833666 0.0843734 
0.0854572 0.0866238 0.087877 0.0892192 0.0906517 0.0921739 0.0937839 0.0954778 0.0972494 
0.0990902 0.100988 0.102929 0.104892 0.106852 0.10878 0.110637 0.112376 0.113947 
0.11528 0.116314 0.116948 0.11713 0.116702 0.115662 0.113689 0.0713671 0.0728885 
0.0742573 0.07545 0.0765124 0.0774528 0.0783119 0.0791096 0.0798781 0.0806378 0.081412 
0.0822166 0.0830669 0.0839736 0.084946 0.0859905 0.087112 0.0883137 0.0895973 0.0909631 
0.0924102 0.0939358 0.0955357 0.0972033 0.0989301 0.100704 0.102511 0.104332 0.106144 
0.107918 0.109618 0.111201 0.11262 0.113808 0.114709 0.115228 0.115313 0.114819 
0.113741 0.111783 0.072127 0.0736581 0.0750304 0.0762216 0.0772779 0.0782089 0.0790555 
0.0798382 0.0805895 0.0813296 0.0820819 0.0828619 0.0836845 0.0845599 0.0854967 0.0865007 
0.0875762 0.0887257 0.0899503 0.0912497 0.0926224 0.0940651 0.0955733 0.0971402 0.0987573 
0.100413 0.102094 0.103781 0.105453 0.107083 0.108639 0.110078 0.111357 0.112414 
0.113194 0.113608 0.113608 0.113055 0.111942 0.109999 0.0728787 0.0744193 0.0757944 
0.0769833 0.0780327 0.0789533 0.0797863 0.0805529 0.0812856 0.0820051 0.0827342 0.0834884 
0.084282 0.0851249 0.0860251 0.0869878 0.0880166 0.0891135 0.0902791 0.0915126 0.0928118 
0.0941734 0.0955924 0.0970621 0.0985739 0.100117 0.101678 0.103239 0.104781 0.106278 
0.107699 0.109006 0.110157 0.111094 0.111765 0.112085 0.112007 0.111402 0.110259 
0.10833 0.0736207 0.0751705 0.0765479 0.0777339 0.0787755 0.0796847 0.080503 0.0812524 
0.0819655 0.0826632 0.083368 0.0840953 0.084859 0.0856684 0.0865311 0.0874518 0.0884336 
0.0894778 0.0905847 0.0917528 0.09298 0.0942623 0.0955948 0.0969708 0.0983818 0.0998175 
0.101265 0.102708 0.104129 0.105501 0.106799 0.107985 0.109019 0.109846 0.110418 
0.110653 0.110506 0.109854 0.108684 0.10677 0.0743516 0.0759103 0.0772894 0.0784718 
0.0795048 0.0804017 0.0812044 0.0819356 0.0826282 0.083303 0.0839826 0.084682 0.0854149 
0.0861901 0.0870147 0.0878929 0.0888274 0.0898191 0.0908677 0.0919716 0.0931282 0.0943335 
0.0955823 0.0968682 0.0981831 0.0995168 0.100857 0.10219 0.103496 0.104755 0.105938 
0.107012 0.107939 0.108667 0.109149 0.109308 0.109098 0.108405 0.107212 0.105311 
0.0750702 0.0766374 0.0780177 0.0791958 0.0802193 0.0811031 0.0818893 0.0826015 0.0832725 
0.0839236 0.0845772 0.085248 0.0859494 0.0866899 0.087476 0.0883115 0.0891987 0.0901382 
0.0911293 0.0921701 0.0932577 0.0943883 0.0955565 0.0967561 0.0979793 0.0992165 0.100456 
0.101685 0.102886 0.104037 0.105115 0.106087 0.106916 0.107554 0.107955 0.108045 
0.107779 0.107049 0.105836 0.103948 0.075775 0.0773504 0.0787314 0.0799045 0.0809179 
0.0817878 0.0825567 0.083249 0.0838978 0.0845244 0.0851512 0.0857929 0.0864623 0.0871675 
0.0879149 0.0887078 0.089548 0.0904358 0.0913703 0.0923494 0.0933701 0.0944283 0.0955191 
0.0966362 0.0977722 0.0989181 0.100063 0.101195 0.102297 0.10335 0.104331 0.105208 
0.105949 0.106505 0.106832 0.10686 0.106544 0.105782 0.104552 0.102676 0.0764648 
0.0780481 0.0794291 0.0805968 0.0815993 0.0824546 0.0832054 0.0838772 0.084503 0.0851047 
0.0857042 0.0863162 0.0869532 0.0876231 0.0883317 0.0890821 0.0898758 0.0907127 0.0915917 
0.0925107 0.0934664 0.094455 0.0954715 0.0965098 0.0975631 0.0986229 0.0996792 0.10072 
0.10173 0.102692 0.103583 0.104375 0.105034 0.105516 0.105777 0.105749 0.105389 
0.104598 0.103353 0.10149 0.0771385 0.0787293 0.0801099 0.0812715 0.0822625 0.0831025 
0.0838346 0.0844853 0.0850876 0.0856638 0.0862356 0.0868177 0.0874222 0.0880567 0.0887268 
0.089435 0.0901827 0.0909697 0.0917946 0.0926551 0.0935482 0.0944697 0.0954151 0.0963786 
0.0973536 0.0983321 0.099305 0.100261 0.101186 0.102064 0.102873 0.103586 0.104171 
0.104585 0.104787 0.104709 0.104309 0.103493 0.102235 0.100383 0.077795 0.0793929 
0.0807726 0.0819274 0.0829064 0.0837305 0.0844435 0.0850725 0.0856509 0.0862012 0.0867452 
0.0872972 0.0878692 0.0884685 0.0891002 0.0897669 0.0904696 0.0912077 0.09198 0.0927839 
0.0936165 0.0944738 0.0953514 0.0962437 0.0971447 0.0980469 0.0989418 0.0998187 0.100665 
0.101465 0.102198 0.102839 0.103357 0.103711 0.103858 0.103736 0.103301 0.102463 
0.101194 0.0993533 0.0784334 0.080038 0.0814162 0.0825638 0.0835301 0.0843379 0.0850312 
0.0856381 0.0861924 0.0867166 0.0872326 0.0877546 0.0882942 0.0888586 0.0894526 0.0900784 
0.0907369 0.0914275 0.0921487 0.0928981 0.0936726 0.0944685 0.0952815 0.0961065 0.0969376 
0.0977682 0.0985901 0.0993936 0.100167 0.100895 0.101559 0.102134 0.102591 0.102889 
0.102988 0.102827 0.10236 0.101503 0.100225 0.0983951 0.0790527 0.0806637 0.0820398 
0.0831798 0.084133 0.0849239 0.0855971 0.0861817 0.0867115 0.0872097 0.0876977 0.0881898 
0.0886974 0.0892273 0.0897842 0.0903701 0.0909856 0.0916301 0.0923019 0.0929987 0.0937176 
0.0944549 0.0952066 0.0959679 0.0967334 0.0974967 0.0982505 0.0989857 0.0996915 0.100353 
0.100954 0.101469 0.10187 0.102119 0.102175 0.101978 0.101484 0.10061 0.0993247 
0.0975048 0.0796523 0.0812691 0.0826428 0.0837746 0.0847142 0.0854879 0.0861406 0.0867027 
0.0872081 0.0876801 0.0881404 0.0886029 0.0890789 0.089575 0.0900956 0.0906425 0.0912163 
0.0918161 0.0924404 0.0930869 0.0937526 0.0944342 0.0951278 0.095829 0.0965328 0.0972332 
0.0979236 0.0985954 0.0992387 0.0998397 0.100382 0.100842 0.101194 0.101397 0.101414 
0.101186 0.100668 0.0997801 0.0984888 0.0966787 0.0802315 0.0818537 0.0832245 0.0843476 
0.0852732 0.0860293 0.0866614 0.0872009 0.0876817 0.0881279 0.0885606 0.088994 0.0894391 
0.0899021 0.0903873 0.0908964 0.0914297 0.0919866 0.0925652 0.0931635 0.0937786 0.0944074 
0.0950461 0.0956907 0.0963366 0.0969783 0.0976096 0.0982227 0.0988082 0.0993534 0.0998424 
0.100253 0.100559 0.100722 0.100705 0.100449 0.0999103 0.0990101 0.097714 0.0959135 
0.0807897 0.0824169 0.0837844 0.0848984 0.0858095 0.0865478 0.0871591 0.0876759 0.0881324 
0.0885529 0.0889586 0.0893634 0.0897781 0.0902089 0.0906598 0.0911323 0.0916267 0.0921422 
0.0926773 0.0932296 0.0937966 0.0943753 0.0949623 0.0955538 0.0961454 0.0967323 0.0973088 
0.0978675 0.0983999 0.0988937 0.099334 0.0996993 0.0999642 0.100092 0.100044 0.0997641 
0.0992069 0.0982968 0.0969971 0.0952057 0.0813267 0.0829585 0.0843221 0.0854266 0.0863229 
0.087043 0.0876335 0.0881276 0.08856 0.0889552 0.0893343 0.0897112 0.0900964 0.090496 
0.0909137 0.0913509 0.091808 0.092284 0.0927773 0.093286 0.0938075 0.0943389 0.0948772 
0.0954188 0.0959599 0.0964958 0.0970213 0.0975298 0.0980131 0.0984599 0.0988558 0.0991801 
0.099408 0.0995036 0.0994286 0.099128 0.0985553 0.0976371 0.096335 0.0945523 0.0818421 
0.083478 0.0848373 0.0859319 0.0868132 0.087515 0.0880845 0.0885561 0.0889646 0.089335 
0.0896881 0.0900379 0.0903945 0.0907639 0.0911496 0.091553 0.0919743 0.0924125 0.0928663 
0.0933336 0.093812 0.094299 0.0947915 0.0952865 0.0957803 0.0962688 0.0967472 0.0972093 
0.0976475 0.0980512 0.0984067 0.0986939 0.0988887 0.0989557 0.098857 0.0985385 0.0979528 
0.0970282 0.0957246 0.0939504 0.0823359 0.0839754 0.08533 0.0864142 0.0872801 0.0879634 
0.088512 0.0889613 0.0893464 0.0896924 0.0900203 0.0903437 0.0906727 0.0910131 0.0913681 
0.0917392 0.0921263 0.0925287 0.0929449 0.093373 0.0938109 0.0942561 0.0947059 0.0951573 
0.0956072 0.0960516 0.0964864 0.0969057 0.0973026 0.0976669 0.0979855 0.0982393 0.0984044 
0.0984463 0.098327 0.0979932 0.0973968 0.0964674 0.0951634 0.0933973 0.082808 0.0844507 
0.0858001 0.0868736 0.0877239 0.0883886 0.0889163 0.0893434 0.0897055 0.0900278 0.0903312 
0.0906292 0.0909317 0.0912442 0.0915699 0.0919101 0.0922649 0.0926333 0.093014 0.0934052 
0.0938049 0.0942109 0.0946207 0.0950316 0.0954406 0.0958443 0.0962388 0.0966187 0.0969777 
0.097306 0.0975912 0.0978149 0.0979534 0.0979732 0.0978362 0.0974896 0.0968847 0.0959521 
0.0946485 0.0928903 0.0832587 0.084904 0.0862478 0.0873102 0.0881445 0.0887905 0.0892974 
0.0897027 0.0900423 0.0903415 0.0906212 0.0908949 0.0911719 0.0914578 0.0917557 0.0920666 
0.0923906 0.0927269 0.0930741 0.0934307 0.0937947 0.094164 0.0945365 0.0949097 0.0952808 
0.0956469 0.0960042 0.096348 0.0966721 0.0969677 0.0972227 0.0974192 0.0975343 0.0975348 
0.0973828 0.0970257 0.0964143 0.0954799 0.0941775 0.092427 0.0836882 0.0853356 0.0866734 
0.0877242 0.0885424 0.0891695 0.0896557 0.0900396 0.0903571 0.0906341 0.090891 0.0911412 
0.091394 0.0916546 0.091926 0.0922092 0.0925042 0.0928102 0.093126 0.0934501 0.0937807 
0.0941159 0.0944537 0.0947918 0.0951279 0.0954592 0.0957823 0.0960929 0.0963853 0.096651 
0.0968787 0.0970509 0.0971453 0.0971292 0.0969645 0.0965993 0.0959833 0.0950484 0.0937481 
0.0920051 0.0840968 0.0857459 0.0870771 0.088116 0.0889177 0.0895259 0.0899916 0.0903544 
0.0906505 0.0909058 0.0911409 0.0913688 0.0915986 0.0918352 0.0920816 0.0923386 0.0926063 
0.0928839 0.0931703 0.093464 0.0937635 0.0940669 0.0943725 0.0946782 0.0949819 0.0952811 
0.0955728 0.095853 0.0961164 0.096355 0.0965581 0.0967087 0.0967849 0.0967545 0.0965796 
0.0962083 0.0955895 0.0946554 0.0933581 0.0916224 0.0844851 0.0861354 0.0874596 0.0884861 
0.089271 0.0898602 0.0903055 0.0906476 0.0909228 0.0911575 0.0913716 0.0915783 0.0917862 
0.0920003 0.0922231 0.0924555 0.0926977 0.0929487 0.0932076 0.093473 0.0937434 0.0940174 
0.0942932 0.094569 0.0948429 0.0951125 0.0953754 0.0956277 0.0958647 0.0960788 0.0962597 
0.0963911 0.0964515 0.0964091 0.0962261 0.0958506 0.0952308 0.0942989 0.0930052 0.0912767 
0.0848537 0.0865046 0.0878213 0.088835 0.0896029 0.0901729 0.090598 0.0909197 0.0911748 
0.0913895 0.0915837 0.0917703 0.0919576 0.0921504 0.0923511 0.0925606 0.0927788 0.093005 
0.0932383 0.0934774 0.093721 0.0939677 0.0942159 0.0944641 0.0947105 0.0949532 0.0951896 
0.0954166 0.0956295 0.0958214 0.0959824 0.0960968 0.0961435 0.0960913 0.0959022 0.0955245 
0.0949053 0.0939768 0.0926876 0.0909661 0.0852033 0.0868543 0.088163 0.0891633 0.0899138 
0.0904646 0.0908697 0.0911715 0.091407 0.0916026 0.091778 0.0919455 0.0921135 0.0922863 
0.0924664 0.0926544 0.0928503 0.0930535 0.093263 0.0934777 0.0936965 0.093918 0.0941408 
0.0943637 0.0945849 0.0948027 0.095015 0.0952188 0.0954099 0.0955818 0.095725 0.0958245 
0.0958596 0.0957995 0.0956062 0.095228 0.094611 0.0936873 0.0924032 0.0906888 0.0855347 
0.0871853 0.0884854 0.0894718 0.0902046 0.090736 0.0911212 0.0914035 0.0916201 0.0917975 
0.0919549 0.0921046 0.0922545 0.0924087 0.0925695 0.0927375 0.0929127 0.0930946 0.0932821 
0.0934743 0.0936702 0.0938685 0.094068 0.0942676 0.0944657 0.0946609 0.0948512 0.0950339 
0.0952052 0.0953591 0.0954864 0.0955729 0.0955981 0.095532 0.0953363 0.0949594 0.0943462 
0.0934284 0.0921503 0.0904429 0.0858489 0.0874985 0.0887893 0.0897613 0.0904759 0.0909878 
0.0913532 0.0916164 0.0918149 0.0919748 0.0921154 0.0922483 0.0923813 0.0925182 0.0926611 
0.0928106 0.0929667 0.0931288 0.093296 0.0934675 0.0936423 0.0938193 0.0939975 0.0941757 
0.0943528 0.0945272 0.0946975 0.0948611 0.0950145 0.0951522 0.0952655 0.0953406 0.0953578 
0.0952872 0.0950909 0.0947169 0.0941091 0.0931984 0.0919272 0.0902269 0.0861468 0.0877947 
0.0890757 0.0900325 0.0907286 0.0912208 0.0915664 0.091811 0.0919919 0.0921354 0.09226 
0.0923773 0.0924945 0.0926154 0.0927418 0.0928743 0.0930127 0.0931566 0.0933052 0.0934577 
0.0936131 0.0937706 0.0939293 0.094088 0.0942458 0.0944015 0.0945535 0.0946998 0.0948371 
0.0949602 0.0950611 0.0951265 0.0951371 0.0950638 0.0948684 0.0944989 0.093898 0.0929958 
0.0917323 0.0900391 0.0864294 0.0880752 0.0893455 0.0902865 0.0909634 0.0914356 0.0917617 
0.0919881 0.0921521 0.0922798 0.0923895 0.0924923 0.092595 0.0927011 0.0928122 0.092929 
0.0930512 0.0931784 0.0933099 0.093445 0.0935828 0.0937225 0.0938632 0.0940043 0.0941446 
0.0942831 0.0944187 0.0945492 0.094672 0.0947822 0.0948721 0.0949292 0.0949348 0.0948601 
0.0946672 0.0943038 0.0937114 0.0928188 0.091564 0.089878 0.086698 0.0883408 0.0895998 
0.0905241 0.0911812 0.0916332 0.0919398 0.0921483 0.0922961 0.092409 0.0925048 0.0925941 
0.0926833 0.0927758 0.092873 0.0929753 0.0930827 0.0931947 0.0933105 0.0934297 0.0935514 
0.0936748 0.0937994 0.0939243 0.0940487 0.0941718 0.0942924 0.0944088 0.0945185 0.0946171 
0.0946975 0.0947476 0.0947495 0.0946748 0.0944858 0.09413 0.0935476 0.0926661 0.0914209 
0.0897424 0.0869536 0.0885929 0.0898396 0.0907463 0.091383 0.0918144 0.0921015 0.0922925 
0.0924247 0.0925236 0.0926064 0.0926832 0.0927602 0.0928401 0.0929246 0.0930138 0.0931076 
0.0932057 0.0933073 0.093412 0.093519 0.0936278 0.0937376 0.0938479 0.093958 0.0940671 
0.0941742 0.0942778 0.0943758 0.0944641 0.0945361 0.0945805 0.0945798 0.0945064 0.0943227 
0.0939761 0.0934052 0.0925363 0.0913017 0.089631 0.0871976 0.0888325 0.0900659 0.0909541 
0.0915696 0.0919799 0.0922476 0.0924215 0.0925388 0.0926244 0.0926951 0.0927605 0.0928262 
0.0928948 0.0929676 0.0930449 0.0931264 0.0932118 0.0933005 0.0933921 0.0934858 0.0935813 
0.0936778 0.0937749 0.093872 0.0939684 0.0940634 0.0941556 0.0942431 0.0943223 0.094387 
0.0944267 0.0944245 0.0943536 0.0941765 0.0938405 0.0932828 0.0924279 0.0912051 0.0895425 
0.0874312 0.0890609 0.0902799 0.0911484 0.0917417 0.0921306 0.0923789 0.092536 0.0926389 
0.0927122 0.0927718 0.0928267 0.0928821 0.0929403 0.0930026 0.093069 0.0931394 0.0932133 
0.0932904 0.0933701 0.0934519 0.0935353 0.0936198 0.0937051 0.0937905 0.0938755 0.0939595 
0.0940415 0.0941196 0.0941907 0.0942492 0.0942851 0.0942824 0.0942151 0.0940459 0.0937219 
0.0931791 0.0923397 0.0911301 0.089476 0.0876557 0.0892794 0.0904828 0.0913301 0.0919004 
0.0922673 0.092496 0.0926367 0.092726 0.0927877 0.092837 0.0928823 0.0929284 0.0929773 
0.0930301 0.0930867 0.093147 0.0932106 0.0932772 0.0933462 0.0934172 0.0934898 0.0935635 
0.0936381 0.093713 0.0937878 0.0938621 0.0939348 0.0940046 0.0940685 0.0941216 0.0941547 
0.0941523 0.0940895 0.0939293 0.0936189 0.0930926 0.0922706 0.0910755 0.0894306 0.0878725 
0.0894893 0.0906755 0.0915003 0.0920464 0.0923906 0.0925998 0.0927245 0.0928007 0.0928516 
0.0928914 0.0929281 0.0929658 0.0930063 0.0930505 0.0930983 0.0931496 0.0932039 0.093261 
0.0933204 0.0933817 0.0934446 0.0935087 0.0935737 0.0936392 0.093705 0.0937704 0.093835 
0.0938973 0.0939549 0.0940034 0.0940343 0.0940331 0.0939756 0.0938256 0.0935302 0.0930223 
0.0922195 0.0910404 0.0894054 0.0880832 0.0896918 0.0908592 0.0916598 0.0921804 0.0925014 
0.092691 0.0928 0.0928637 0.0929046 0.0929358 0.0929647 0.0929948 0.0930279 0.0930643 
0.0931043 0.0931474 0.0931935 0.0932421 0.093293 0.0933456 0.0933998 0.0934553 0.0935117 
0.0935689 0.0936264 0.0936841 0.0937413 0.093797 0.0938491 0.0938937 0.093923 0.0939235 
0.0938722 0.0937335 0.0934545 0.0929667 0.0921852 0.091024 0.0893997 0.0882891 0.0898883 
0.0910351 0.0918095 0.0923032 0.0926002 0.0927701 0.0928638 0.0929158 0.0929473 0.0929708 
0.0929926 0.0930161 0.0930424 0.0930721 0.093105 0.0931409 0.0931796 0.0932207 0.0932639 
0.0933088 0.0933553 0.0934031 0.0934519 0.0935016 0.0935519 0.0936026 0.0936533 0.0937031 
0.0937503 0.0937915 0.0938197 0.0938226 0.093778 0.0936515 0.0933904 0.0929248 0.0921668 
0.0910256 0.089413 0.0884919 0.0900802 0.0912041 0.0919501 0.0924153 0.0926876 0.0928378 
0.0929166 0.0929575 0.0929805 0.092997 0.0930126 0.0930301 0.0930505 0.0930741 0.0931008 
0.0931304 0.0931625 0.0931968 0.0932332 0.0932713 0.093311 0.0933519 0.093394 0.093437 
0.0934809 0.0935254 0.0935703 0.0936149 0.0936578 0.0936961 0.0937237 0.0937292 0.093692 
0.0935786 0.0933368 0.0928955 0.0921635 0.0910445 0.0894448 0.0886931 0.0902688 0.0913672 
0.0920824 0.0925174 0.0927641 0.0928946 0.092959 0.0929895 0.0930048 0.093015 0.0930251 
0.0930374 0.0930526 0.0930708 0.0930921 0.093116 0.0931423 0.0931707 0.0932011 0.0932332 
0.0932668 0.0933017 0.0933378 0.0933749 0.0934131 0.0934521 0.0934918 0.0935318 0.0935709 
0.0936067 0.0936339 0.0936424 0.0936129 0.0935134 0.0932923 0.0928776 0.0921744 0.0910802 
0.0894949 0.0888945 0.0904556 0.0915254 0.0922068 0.0926098 0.0928301 0.0929409 0.0929915 
0.0930124 0.0930207 0.0930254 0.0930307 0.0930384 0.0930491 0.0930627 0.0930791 0.0930981 
0.0931193 0.0931425 0.0931676 0.0931944 0.0932226 0.0932522 0.093283 0.093315 0.0933481 
0.0933823 0.0934174 0.0934532 0.0934889 0.0935225 0.0935496 0.0935613 0.0935397 0.0934547 
0.0932558 0.0928699 0.0921986 0.0911324 0.0895633 0.089098 0.090642 0.0916796 0.0923239 
0.0926927 0.092886 0.0929772 0.0930146 0.0930266 0.0930288 0.0930287 0.0930299 0.0930337 
0.0930404 0.09305 0.0930623 0.0930769 0.0930937 0.0931124 0.0931329 0.093155 0.0931785 
0.0932034 0.0932296 0.093257 0.0932856 0.0933155 0.0933465 0.0933786 0.0934113 0.093443 
0.09347 0.0934848 0.0934714 0.0934014 0.0932257 0.0928712 0.0922352 0.0912008 0.0896502 
0.0893056 0.0908294 0.0918304 0.0924339 0.0927663 0.0929318 0.0930039 0.0930288 0.0930328 
0.0930296 0.0930254 0.0930232 0.0930237 0.0930271 0.0930332 0.0930419 0.0930528 0.0930657 
0.0930805 0.0930969 0.0931149 0.0931344 0.0931552 0.0931773 0.0932007 0.0932254 0.0932514 
0.0932788 0.0933076 0.0933374 0.0933673 0.0933944 0.0934122 0.0934067 0.093352 0.0932009 
0.0928801 0.0922836 0.0912853 0.089756 0.0895195 0.0910194 0.0919783 0.0925366 0.0928304 
0.0929677 0.0930211 0.0930345 0.0930314 0.0930236 0.0930161 0.093011 0.0930088 0.0930094 
0.0930126 0.0930182 0.093026 0.0930356 0.093047 0.09306 0.0930744 0.0930903 0.0931075 
0.0931261 0.0931459 0.0931671 0.0931897 0.0932139 0.0932397 0.0932669 0.0932951 0.093322 
0.0933426 0.0933448 0.0933053 0.0931796 0.0928953 0.0923426 0.091386 0.0898817 0.0897423 
0.0912133 0.0921236 0.0926318 0.0928846 0.0929934 0.093029 0.093032 0.0930229 0.0930114 
0.0930012 0.0929939 0.0929895 0.0929879 0.0929887 0.0929918 0.0929969 0.0930037 0.0930122 
0.0930222 0.0930336 0.0930464 0.0930605 0.0930759 0.0930926 0.0931107 0.0931303 0.0931514 
0.0931745 0.0931993 0.0932257 0.0932523 0.0932752 0.0932845 0.09326 0.0931603 0.092915 
0.0924113 0.0915029 0.0900283 0.0899769 0.0914126 0.092266 0.0927186 0.0929283 0.0930089 
0.0930277 0.0930216 0.0930075 0.0929933 0.0929812 0.0929722 0.0929662 0.0929628 0.0929618 
0.0929629 0.0929658 0.0929703 0.0929764 0.0929839 0.0929927 0.0930028 0.0930142 0.0930268 
0.0930407 0.093056 0.0930728 0.0930913 0.0931117 0.0931341 0.0931588 0.0931847 0.0932093 
0.0932249 0.0932146 0.0931411 0.0929373 0.0924882 0.0916364 0.0901978 0.0902267 0.0916183 
0.0924046 0.0927955 0.0929603 0.0930135 0.0930172 0.0930036 0.0929859 0.0929698 0.0929566 
0.0929466 0.0929395 0.092935 0.0929326 0.0929321 0.0929333 0.0929361 0.0929402 0.0929456 
0.0929522 0.09296 0.092969 0.0929791 0.0929905 0.0930033 0.0930175 0.0930334 0.0930512 
0.0930713 0.093094 0.0931188 0.0931444 0.0931652 0.0931678 0.0931199 0.0929595 0.0925713 
0.0917863 0.0903924 0.0904963 0.0918316 0.0925377 0.0928604 0.0929793 0.0930067 0.0929975 
0.0929783 0.0929583 0.0929414 0.0929278 0.0929175 0.0929099 0.0929047 0.0929015 0.0929 
0.0929 0.0929013 0.0929038 0.0929075 0.0929123 0.0929181 0.092925 0.092933 0.0929421 
0.0929524 0.0929642 0.0929776 0.0929929 0.0930105 0.0930309 0.0930541 0.0930798 0.0931042 
0.0931179 0.0930944 0.0929787 0.0926579 0.0919528 0.0906158 0.0907905 0.0920512 0.0926609 
0.0929095 0.0929831 0.0929878 0.0929687 0.092946 0.0929255 0.0929089 0.0928958 0.0928859 
0.0928786 0.0928733 0.0928698 0.0928678 0.092867 0.0928674 0.0928688 0.0928711 0.0928744 
0.0928785 0.0928836 0.0928895 0.0928965 0.0929046 0.092914 0.0929248 0.0929375 0.0929523 
0.09297 0.0929909 0.0930154 0.0930415 0.0930637 0.0930617 0.0929903 0.0927431 0.0921341 
0.090872 0.0911188 0.0922769 0.0927696 0.0929387 0.0929697 0.0929558 0.0929304 0.0929069 
0.0928874 0.0928724 0.0928609 0.0928523 0.0928459 0.0928412 0.0928379 0.0928359 0.0928348 
0.0928346 0.0928353 0.0928366 0.0928387 0.0928414 0.0928448 0.0928489 0.0928539 0.0928597 
0.0928666 0.0928748 0.0928845 0.0928963 0.0929107 0.0929284 0.0929503 0.092976 0.0930033 
0.0930188 0.0929893 0.092821 0.0923288 0.0911697 0.0914842 0.0924951 0.0928497 0.0929401 
0.0929365 0.0929113 0.0928849 0.0928637 0.0928475 0.0928355 0.0928266 0.09282 0.0928152 
0.0928116 0.0928091 0.0928075 0.0928065 0.0928061 0.0928063 0.092807 0.0928081 0.0928097 
0.0928117 0.0928142 0.0928173 0.0928211 0.0928256 0.0928311 0.0928377 0.092846 0.0928565 
0.09287 0.0928875 0.0929099 0.0929374 0.0929635 0.0929679 0.092878 0.0925236 0.091512 
0.0919236 0.0927005 0.0928894 0.0929056 0.0928788 0.0928508 0.0928294 0.0928143 0.0928041 
0.0927969 0.092792 0.0927885 0.092786 0.0927842 0.092783 0.0927822 0.0927817 0.0927814 
0.0927815 0.0927817 0.0927821 0.0927828 0.0927836 0.0927847 0.092786 0.0927877 0.0927897 
0.0927922 0.0927954 0.0927996 0.0928052 0.0928129 0.0928237 0.0928392 0.0928611 0.0928893 
0.0929165 0.0929005 0.0927117 0.0919344 0.0923662 0.092812 0.0928611 0.0928412 0.0928154 
0.0927968 0.0927853 0.092778 0.0927737 0.092771 0.0927694 0.0927684 0.0927677 0.0927673 
0.092767 0.0927669 0.0927668 0.0927667 0.0927667 0.0927668 0.0927668 0.0927669 0.0927671 
0.0927673 0.0927675 0.0927678 0.0927683 0.0927688 0.0927696 0.0927707 0.0927724 0.0927753 
0.0927796 0.092787 0.0927986 0.0928172 0.0928431 0.092863 0.092814 0.0923679 
Froude 1 12320 float
0.0225231 0.0228059 0.0230508 0.0232639 0.0234477 0.0236078 0.0237492 0.0238798 0.0240097 
0.0241544 0.0243361 0.0245872 0.0249542 0.0255001 0.0263048 0.0274602 0.0290505 0.0311271 
0.0337032 0.0367507 0.0402091 0.0439991 0.0480344 0.0522299 0.0565059 0.0607896 0.0650154 
0.069124 0.073062 0.0767808 0.0802363 0.0833876 0.0861976 0.0886311 0.0906569 0.0922431 
0.0933647 0.0939891 0.0941007 0.0936532 0.0225704 0.0228518 0.023095 0.0233049 0.0234845 
0.0236385 0.0237718 0.0238914 0.0240069 0.0241324 0.0242886 0.0245059 0.0248281 0.0253163 
0.0260507 0.0271288 0.0286453 0.0306592 0.0331925 0.0362218 0.0396871 0.0435068 0.0475907 
0.0518495 0.0561998 0.0605654 0.0648779 0.0690755 0.0731028 0.0769095 0.0804498 0.0836815 
0.0865661 0.0890677 0.0911533 0.0927917 0.0939544 0.0946131 0.0947434 0.0943154 0.0226051 
0.022887 0.0231315 0.0233426 0.023524 0.0236798 0.023815 0.0239362 0.0240526 0.0241777 
0.0243308 0.0245408 0.0248495 0.0253152 0.0260156 0.0270477 0.0285108 0.0304733 0.0329627 
0.0359614 0.039412 0.0432327 0.0473315 0.0516167 0.056002 0.0604088 0.0647665 0.0690119 
0.073088 0.0769431 0.0805305 0.0838071 0.0867335 0.0892732 0.0913923 0.0930593 0.0942449 
0.0949206 0.0950607 0.0946377 0.0226421 0.0229239 0.0231675 0.023377 0.0235557 0.023708 
0.0238382 0.0239528 0.0240602 0.0241731 0.0243097 0.0244973 0.0247757 0.0252012 0.02585 
0.0268181 0.0282139 0.0301164 0.0325589 0.03553 0.0389749 0.0428108 0.0469429 0.0512758 
0.0557197 0.0601928 0.0646219 0.0689411 0.0730916 0.0770202 0.0806785 0.0840225 0.0870114 
0.0896079 0.0917772 0.093487 0.0947073 0.0954093 0.0955663 0.09515 0.0226898 0.0229721 
0.0232164 0.0234267 0.0236062 0.023759 0.0238896 0.0240036 0.0241093 0.0242183 0.0243477 
0.0245232 0.0247823 0.0251789 0.0257866 0.0266998 0.028029 0.0298675 0.0322546 0.035186 
0.0386113 0.0424476 0.0465985 0.0509653 0.0554548 0.0599821 0.064471 0.0688538 0.0730693 
0.0770627 0.0807843 0.0841886 0.0872338 0.0898816 0.0920964 0.093845 0.0950965 0.0958218 
0.0959933 0.095583 0.0227285 0.0230109 0.023255 0.0234645 0.0236427 0.0237934 0.0239209 
0.0240308 0.0241306 0.0242311 0.0243487 0.0245073 0.0247427 0.0251062 0.0256699 0.0265264 
0.0277878 0.0295607 0.0318926 0.0347858 0.0381943 0.0420355 0.0462107 0.0506178 0.05516 
0.0597489 0.0643057 0.0687596 0.0730478 0.0771135 0.0809054 0.0843766 0.0874843 0.090189 
0.092454 0.0942455 0.0955318 0.0962831 0.0964711 0.0960673 0.0227802 0.023063 0.0233074 
0.0235171 0.0236954 0.0238458 0.0239726 0.0240808 0.0241775 0.0242729 0.0243822 0.0245278 
0.0247436 0.0250784 0.0256016 0.0264042 0.0275981 0.0293001 0.0315703 0.0344175 0.0378008 
0.0416391 0.0458316 0.0502732 0.0548633 0.0595101 0.0641316 0.0686544 0.0730135 0.0771501 
0.0810112 0.0845487 0.0877184 0.0904796 0.0927947 0.094629 0.09595 0.0967271 0.0969315 
0.0965343 0.0228232 0.0231063 0.0233507 0.0235601 0.0237376 0.0238867 0.0240114 0.0241166 
0.0242089 0.0242979 0.0243977 0.0245295 0.0247251 0.0250314 0.0255149 0.0262653 0.0273939 
0.0290228 0.0312308 0.034031 0.0373882 0.0412233 0.0454338 0.0499112 0.054551 0.0592579 
0.0639466 0.068541 0.0729737 0.077184 0.0811172 0.0847236 0.0879577 0.0907776 0.0931448 
0.0950237 0.0963808 0.0971849 0.0974064 0.0970161 0.0228759 0.0231594 0.023404 0.0236134 
0.0237906 0.0239391 0.0240625 0.0241657 0.0242548 0.0243387 0.0244305 0.0245502 0.0247277 
0.0250075 0.0254534 0.0261532 0.0272171 0.0287707 0.0309115 0.033659 0.0369842 0.040811 
0.0450352 0.0495451 0.0542324 0.058998 0.063753 0.0684188 0.0729252 0.0772095 0.0812153 
0.0848912 0.0881904 0.0910699 0.09349 0.0954141 0.0968078 0.0976394 0.0978783 0.097495 
0.0229231 0.0232069 0.0234516 0.0236608 0.0238374 0.0239849 0.0241068 0.0242076 0.0242931 
0.0243717 0.0244556 0.0245636 0.0247236 0.0249781 0.0253882 0.0260395 0.0270406 0.0285196 
0.0305904 0.0332827 0.0365734 0.0403896 0.044626 0.0491679 0.0539027 0.0587274 0.0635498 
0.068288 0.0728694 0.0772293 0.0813091 0.0850561 0.088422 0.0913624 0.0938366 0.0958069 
0.0972383 0.0980979 0.0983548 0.0979787 0.0229764 0.0232606 0.0235055 0.0237146 0.0238908 
0.0240376 0.0241582 0.024257 0.0243394 0.0244133 0.0244901 0.0245873 0.0247312 0.024962 
0.0253381 0.0259424 0.0268824 0.0282867 0.0302827 0.0329153 0.036167 0.0399683 0.0442135 
0.0487848 0.0535655 0.0584486 0.063338 0.0681489 0.0728059 0.077242 0.0813968 0.0852158 
0.0886493 0.0916516 0.0941808 0.0961983 0.0976679 0.0985562 0.0988314 0.0984626 0.0230268 
0.0233114 0.0235564 0.0237654 0.0239412 0.0240871 0.0242064 0.0243032 0.0243826 0.0244519 
0.024522 0.024609 0.0247378 0.0249462 0.0252901 0.0258496 0.0267307 0.0280624 0.0299794 
0.0325498 0.0357591 0.0395422 0.043794 0.048393 0.053219 0.0581602 0.063117 0.0680012 
0.0727347 0.0772481 0.081479 0.0853713 0.0888735 0.0919388 0.0945241 0.0965895 0.0980982 
0.0990157 0.0993097 0.0989485 0.023081 0.023366 0.0236111 0.02382 0.0239954 0.0241406 
0.0242587 0.0243536 0.0244303 0.0244955 0.0245594 0.0246369 0.0247516 0.0249389 0.0252524 
0.0257688 0.0265927 0.0278525 0.0296886 0.0321924 0.0353548 0.0391155 0.0433704 0.047995 
0.0528647 0.0578634 0.0628875 0.0678453 0.0726558 0.0772473 0.0815553 0.0855218 0.0890938 
0.0922231 0.0948653 0.0969796 0.098528 0.0994754 0.0997884 0.099435 0.0231339 0.0234193 
0.0236646 0.0238734 0.0240484 0.0241928 0.0243098 0.0244029 0.024477 0.0245383 0.0245964 
0.0246651 0.0247667 0.0249343 0.0252191 0.0256945 0.0264632 0.0276527 0.0294074 0.0318402 
0.0349517 0.0386865 0.0429416 0.0475897 0.0525019 0.0575575 0.0626489 0.0676808 0.0725691 
0.0772396 0.0816257 0.0856674 0.0893103 0.0925047 0.0952048 0.0973688 0.0989577 0.0999355 
0.100268 0.0999225 0.0231892 0.0234749 0.0237205 0.0239291 0.0241038 0.0242476 0.0243634 
0.0244549 0.0245265 0.0245842 0.0246368 0.0246975 0.0247867 0.0249358 0.0251934 0.0256299 
0.0263453 0.0274661 0.0291391 0.031496 0.0345524 0.0382572 0.0425091 0.0471781 0.0521313 
0.0572432 0.0624017 0.0675079 0.0724746 0.0772249 0.08169 0.085808 0.0895228 0.0927832 
0.0955423 0.0977568 0.0993869 0.100396 0.100748 0.100411 0.0232442 0.0235303 0.023776 
0.0239846 0.0241589 0.024302 0.0244168 0.0245067 0.024576 0.0246304 0.0246779 0.024731 
0.0248087 0.0249407 0.0251726 0.0255723 0.0262363 0.0272907 0.0288836 0.0311582 0.0341563 
0.0378273 0.0420724 0.0467601 0.0517527 0.0569201 0.0621456 0.0673264 0.0723722 0.0772031 
0.0817482 0.0859435 0.0897313 0.0930587 0.0958776 0.0981435 0.0998155 0.100856 0.101228 
0.100899 0.0233007 0.0235873 0.0238332 0.0240417 0.0242157 0.0243581 0.0244718 0.0245603 
0.0246274 0.0246786 0.0247215 0.0247675 0.0248345 0.0249504 0.0251581 0.0255228 0.0261375 
0.0271273 0.0286407 0.03083 0.0337652 0.037398 0.0416325 0.0463362 0.0513664 0.0565885 
0.0618808 0.0671365 0.0722618 0.0771742 0.0818002 0.0860738 0.0899356 0.0933311 0.0962107 
0.0985289 0.100243 0.101316 0.101709 0.101389 0.0233575 0.0236445 0.0238905 0.024099 
0.0242726 0.0244144 0.0245272 0.0246142 0.0246793 0.0247275 0.024766 0.0248055 0.0248626 
0.0249635 0.0251485 0.0254801 0.0260477 0.0269746 0.0284097 0.0305119 0.0333791 0.0369694 
0.0411896 0.0459064 0.0509726 0.0562483 0.0616071 0.0669378 0.0721433 0.0771379 0.0818458 
0.0861988 0.0901356 0.0936002 0.0965415 0.0989128 0.100671 0.101776 0.10219 0.101878 
0.0234153 0.0237028 0.023949 0.0241574 0.0243307 0.0244719 0.0245837 0.0246694 0.0247325 
0.024778 0.0248124 0.0248458 0.0248936 0.0249805 0.0251443 0.0254445 0.0259671 0.0268332 
0.0281913 0.0302055 0.0329989 0.0365421 0.0407442 0.0454712 0.0505714 0.0558997 0.0613246 
0.0667306 0.0720168 0.0770944 0.081885 0.0863185 0.0903313 0.093866 0.09687 0.0992952 
0.101097 0.102235 0.102671 0.102368 0.0234737 0.0237616 0.024008 0.0242163 0.0243893 
0.0245299 0.0246408 0.0247251 0.0247864 0.0248293 0.0248599 0.0248876 0.0249269 0.0250006 
0.0251446 0.0254151 0.025895 0.0267021 0.0279852 0.0299114 0.0326245 0.0361166 0.0402968 
0.0450307 0.0501629 0.0555427 0.0610334 0.0665147 0.0718821 0.0770435 0.0819178 0.0864326 
0.0905226 0.0941284 0.0971961 0.0996761 0.101523 0.102695 0.103153 0.102859 0.0235329 
0.0238212 0.0240678 0.0242761 0.0244488 0.0245888 0.0246988 0.0247819 0.0248414 0.0248818 
0.0249088 0.0249313 0.0249626 0.025024 0.0251495 0.0253919 0.0258312 0.0265815 0.0277914 
0.029631 0.0322567 0.0356937 0.0398479 0.0445853 0.0497473 0.0551774 0.0607333 0.0662901 
0.0717391 0.0769851 0.0819441 0.0865413 0.0907094 0.0943874 0.0975197 0.100055 0.101948 
0.103154 0.103634 0.10335 0.0235927 0.0238815 0.0241283 0.0243365 0.0245088 0.0246482 
0.0247574 0.0248392 0.0248971 0.0249351 0.0249589 0.0249764 0.0250003 0.0250503 0.0251584 
0.0253744 0.0257752 0.0264708 0.0276094 0.0293624 0.0318979 0.0352742 0.0393979 0.0441353 
0.0493248 0.0548037 0.0604244 0.0660568 0.0715879 0.0769191 0.0819637 0.0866443 0.0908917 
0.0946429 0.0978407 0.100433 0.102372 0.103613 0.104116 0.103841 0.0236533 0.0239425 
0.0241894 0.0243976 0.0245696 0.0247085 0.0248167 0.0248974 0.0249537 0.0249895 0.0250101 
0.025023 0.02504 0.0250795 0.0251714 0.0253626 0.0257267 0.02637 0.0274389 0.0291063 
0.031549 0.0348588 0.0389473 0.0436811 0.0488956 0.054422 0.0601068 0.0658146 0.0714283 
0.0768455 0.0819766 0.0867417 0.0910693 0.0948948 0.0981592 0.100809 0.102795 0.104072 
0.104598 0.104333 0.0237145 0.0240041 0.0242512 0.0244593 0.024631 0.0247693 0.0248767 
0.0249562 0.025011 0.0250447 0.0250623 0.025071 0.0250816 0.0251112 0.0251879 0.0253559 
0.0256853 0.0262786 0.0272798 0.0288627 0.0312113 0.0344477 0.0384964 0.0432229 0.0484598 
0.0540321 0.0597803 0.0655637 0.0712603 0.0767642 0.0819827 0.0868333 0.0912423 0.0951431 
0.0984751 0.101183 0.103217 0.10453 0.105079 0.104825 0.0237763 0.0240664 0.0243137 
0.0245217 0.0246931 0.0248308 0.0249374 0.0250158 0.025069 0.0251007 0.0251156 0.0251203 
0.0251249 0.0251454 0.0252079 0.0253541 0.0256506 0.0261962 0.0271317 0.0286319 0.0308861 
0.0340412 0.0380457 0.0427614 0.0480177 0.0536343 0.0594451 0.0653038 0.0710838 0.0766752 
0.081982 0.0869191 0.0914105 0.0953877 0.0987884 0.101556 0.103638 0.104988 0.105561 
0.105317 0.0238388 0.0241293 0.0243768 0.0245848 0.0247558 0.0248929 0.0249987 0.0250759 
0.0251277 0.0251575 0.0251698 0.0251707 0.0251697 0.0251817 0.025231 0.0253569 0.0256222 
0.0261224 0.0269943 0.0284137 0.0305742 0.0336398 0.037596 0.0422969 0.0475695 0.0532286 
0.0591012 0.0650352 0.0708988 0.0765783 0.0819743 0.086999 0.091574 0.0956286 0.0990989 
0.101927 0.104058 0.105446 0.106043 0.105809 0.0239019 0.0241928 0.0244406 0.0246484 
0.0248191 0.0249556 0.0250605 0.0251367 0.0251871 0.0252151 0.0252248 0.0252223 0.0252161 
0.0252202 0.0252572 0.025364 0.0256 0.0260569 0.0268675 0.0282075 0.0302742 0.0332462 
0.0371483 0.0418297 0.0471153 0.052815 0.0587485 0.0647576 0.0707052 0.0764736 0.0819597 
0.087073 0.0917326 0.0958658 0.0994067 0.102296 0.104478 0.105903 0.106526 0.106302 
0.0239656 0.024257 0.0245049 0.0247126 0.024883 0.0250189 0.025123 0.0251981 0.0252471 
0.0252733 0.0252807 0.0252749 0.0252638 0.0252606 0.0252861 0.0253752 0.0255835 0.0259993 
0.026751 0.0280133 0.0299864 0.0328615 0.0367029 0.0413601 0.0466556 0.0523939 0.0583871 
0.064471 0.070503 0.0763608 0.081938 0.0871409 0.0918862 0.0960991 0.0997117 0.102663 
0.104896 0.10636 0.107008 0.106795 0.0240298 0.0243217 0.0245698 0.0247775 0.0249475 
0.0250828 0.025186 0.0252601 0.0253077 0.0253322 0.0253374 0.0253284 0.0253129 0.0253028 
0.0253177 0.0253901 0.0255725 0.0259493 0.0266444 0.027831 0.0297111 0.032487 0.0362602 
0.0408886 0.0461905 0.0519652 0.0580171 0.0641755 0.0702921 0.0762401 0.0819091 0.0872028 
0.0920349 0.0963285 0.100014 0.103028 0.105313 0.106816 0.10749 0.107289 0.0240947 
0.024387 0.0246352 0.0248428 0.0250125 0.0251472 0.0252496 0.0253226 0.0253689 0.0253917 
0.0253948 0.0253829 0.0253631 0.0253467 0.0253517 0.0254085 0.0255666 0.0259063 0.0265474 
0.0276601 0.0294488 0.0321239 0.0358205 0.0404155 0.0457204 0.051529 0.0576385 0.063871 
0.0700725 0.0761112 0.0818731 0.0872584 0.0921785 0.0965541 0.100313 0.103391 0.105729 
0.107272 0.107972 0.107783 0.0241601 0.0244529 0.0247013 0.0249087 0.025078 0.0252121 
0.0253137 0.0253856 0.0254306 0.0254519 0.0254528 0.0254382 0.0254145 0.0253921 0.0253879 
0.0254302 0.0255656 0.0258701 0.0264596 0.0275004 0.0291994 0.0317742 0.0353835 0.0399413 
0.0452459 0.0510857 0.0572515 0.0635576 0.0698441 0.0759741 0.0818298 0.0873079 0.0923171 
0.0967756 0.10061 0.103753 0.106144 0.107728 0.108455 0.108277 0.024226 0.0245193 
0.0247678 0.0249752 0.0251441 0.0252776 0.0253783 0.0254492 0.0254929 0.0255125 0.0255116 
0.0254943 0.0254669 0.025439 0.0254263 0.0254549 0.0255691 0.0258403 0.0263806 0.0273517 
0.0289624 0.0314363 0.0349522 0.039467 0.044767 0.0506352 0.0568559 0.0632351 0.0696068 
0.0758288 0.0817791 0.087351 0.0924504 0.0969931 0.100903 0.104112 0.106558 0.108183 
0.108937 0.108771 0.0242925 0.0245862 0.0248349 0.0250422 0.0252107 0.0253435 0.0254434 
0.0255132 0.0255557 0.0255738 0.0255709 0.0255511 0.0255203 0.0254872 0.0254666 0.0254826 
0.0255768 0.0258167 0.0263101 0.027214 0.0287376 0.0311101 0.0345279 0.0389933 0.044284 
0.0501778 0.0564518 0.0629036 0.0693607 0.0756752 0.081721 0.0873878 0.0925785 0.0972065 
0.101194 0.10447 0.106971 0.108638 0.10942 0.109265 0.0243595 0.0246537 0.0249026 
0.0251097 0.0252778 0.02541 0.025509 0.0255777 0.0256189 0.0256355 0.0256308 0.0256087 
0.0255746 0.0255367 0.0255087 0.025513 0.0255886 0.025799 0.0262477 0.0270869 0.0285252 
0.0307961 0.0341119 0.0385204 0.0437973 0.0497137 0.0560394 0.0625632 0.0691056 0.0755133 
0.0816554 0.0874182 0.0927014 0.0974158 0.101481 0.104825 0.107382 0.109093 0.109902 
0.10976 0.0244271 0.0247216 0.0249707 0.0251776 0.0253453 0.0254769 0.025575 0.0256427 
0.0256826 0.0256978 0.0256913 0.0256669 0.0256298 0.0255874 0.0255525 0.0255459 0.025604 
0.0257868 0.026193 0.0269701 0.0283248 0.0304946 0.0337055 0.0380487 0.0433071 0.0492431 
0.0556187 0.0622137 0.0688415 0.0753429 0.0815822 0.087442 0.0928188 0.0976209 0.101766 
0.105179 0.107793 0.109547 0.110385 0.110256 0.0244951 0.0247901 0.0250393 0.0252461 
0.0254134 0.0255443 0.0256415 0.0257081 0.0257468 0.0257605 0.0257523 0.0257257 0.0256857 
0.0256392 0.0255979 0.0255811 0.0256229 0.0257797 0.0261455 0.0268631 0.0281362 0.0302061 
0.0333101 0.0375783 0.0428137 0.0487664 0.0551898 0.0618553 0.0685685 0.075164 0.0815014 
0.0874592 0.0929309 0.0978217 0.102047 0.10553 0.108202 0.11 0.110867 0.110751 
0.0245636 0.0248591 0.0251084 0.025315 0.0254819 0.0256121 0.0257084 0.0257739 0.0258114 
0.0258236 0.0258137 0.0257852 0.0257424 0.025692 0.0256447 0.0256185 0.0256451 0.0257776 
0.026105 0.0267656 0.0279591 0.0299307 0.0329281 0.0371088 0.0423177 0.0482839 0.0547528 
0.0614879 0.0682863 0.0749766 0.0814129 0.0874699 0.0930374 0.0980183 0.102325 0.105879 
0.10861 0.110453 0.11135 0.111247 0.0246325 0.0249285 0.0251779 0.0253844 0.0255508 
0.0256803 0.0257758 0.0258402 0.0258764 0.0258872 0.0258757 0.0258451 0.0257997 0.0257457 
0.0256928 0.025658 0.0256703 0.02578 0.0260712 0.0266774 0.0277934 0.0296678 0.032557 
0.0366438 0.04182 0.0477956 0.0543078 0.0611115 0.0679951 0.0747805 0.0813166 0.0874737 
0.0931385 0.0982105 0.1026 0.106227 0.109017 0.110905 0.111833 0.111743 0.024702 
0.0249984 0.0252479 0.0254542 0.0256202 0.025749 0.0258435 0.0259068 0.0259418 0.0259512 
0.0259381 0.0259056 0.0258577 0.0258003 0.0257422 0.0256993 0.0256983 0.0257868 0.0260437 
0.026598 0.0276391 0.0294174 0.0321974 0.0361842 0.0413211 0.0473019 0.0538549 0.0607262 
0.0676947 0.0745758 0.0812125 0.0874708 0.0932339 0.0983983 0.102872 0.106572 0.109423 
0.111358 0.112315 0.112239 0.0247719 0.0250687 0.0253184 0.0255245 0.02569 0.025818 
0.0259116 0.0259738 0.0260075 0.0260156 0.0260009 0.0259666 0.0259164 0.0258557 0.0257928 
0.0257423 0.0257291 0.0257975 0.0260223 0.026527 0.0274959 0.0291794 0.0318495 0.0357316 
0.0408215 0.0468029 0.0533941 0.0603319 0.0673852 0.0743623 0.0811004 0.0874611 0.0933236 
0.0985817 0.10314 0.106914 0.109827 0.111809 0.112798 0.112736 0.0248422 0.0251395 
0.0253893 0.0255952 0.0257602 0.0258875 0.0259801 0.0260412 0.0260737 0.0260804 0.0260641 
0.026028 0.0259755 0.0259118 0.0258445 0.025787 0.0257623 0.0258121 0.0260065 0.0264641 
0.0273633 0.0289539 0.0315138 0.0352873 0.0403211 0.0462989 0.0529258 0.0599288 0.0670665 
0.07414 0.0809803 0.0874444 0.0934076 0.0987605 0.103405 0.107255 0.11023 0.11226 
0.113281 0.113233 0.024913 0.0252107 0.0254606 0.0256663 0.0258308 0.0259573 0.026049 
0.026109 0.0261402 0.0261455 0.0261277 0.0260898 0.0260353 0.0259687 0.0258972 0.0258332 
0.0257979 0.0258302 0.0259961 0.0264088 0.0272411 0.0287406 0.0311909 0.0348526 0.0398203 
0.0457901 0.0524501 0.0595167 0.0667387 0.0739088 0.0808522 0.0874207 0.0934858 0.0989348 
0.103667 0.107593 0.110632 0.11271 0.113763 0.11373 0.0249842 0.0252824 0.0255324 
0.0257378 0.0259017 0.0260275 0.0261182 0.0261771 0.026207 0.0262109 0.0261917 0.0261521 
0.0260955 0.0260262 0.0259508 0.0258807 0.0258356 0.0258515 0.0259908 0.0263607 0.027129 
0.0285392 0.0308811 0.0344297 0.0393189 0.0452767 0.0519673 0.0590959 0.0664016 0.0736687 
0.0807159 0.0873899 0.0935581 0.0991045 0.103926 0.107929 0.111032 0.11316 0.114246 
0.114228 0.0250558 0.0253545 0.0256045 0.0258097 0.0259731 0.0260981 0.0261878 0.0262455 
0.0262742 0.0262767 0.026256 0.0262148 0.0261562 0.0260843 0.0260053 0.0259295 0.0258752 
0.0258759 0.0259903 0.0263197 0.0270265 0.0283495 0.0305841 0.0340185 0.0388181 0.0447596 
0.0514776 0.0586662 0.0660553 0.0734197 0.0805715 0.087352 0.0936245 0.0992695 0.104181 
0.108263 0.111432 0.11361 0.114729 0.114726 0.0251279 0.0254269 0.0256771 0.025882 
0.0260449 0.026169 0.0262578 0.0263143 0.0263417 0.0263428 0.0263206 0.0262778 0.0262173 
0.026143 0.0260606 0.0259795 0.0259168 0.0259032 0.0259942 0.0262853 0.0269334 0.0281717 
0.0302996 0.0336178 0.0383208 0.0442394 0.050981 0.0582278 0.0656997 0.0731615 0.0804187 
0.0873068 0.0936849 0.0994298 0.104432 0.108594 0.111829 0.114059 0.115212 0.115224 
0.0252003 0.0254998 0.02575 0.0259547 0.026117 0.0262403 0.026328 0.0263834 0.0264094 
0.0264093 0.0263856 0.0263412 0.0262789 0.0262023 0.0261167 0.0260306 0.0259601 0.0259332 
0.0260023 0.0262573 0.0268493 0.0280055 0.0300278 0.033228 0.037828 0.0437166 0.0504777 
0.0577807 0.0653349 0.0728943 0.0802576 0.0872544 0.0937393 0.0995852 0.10468 0.108924 
0.112226 0.114507 0.115694 0.115722 0.0252731 0.025573 0.0258233 0.0260277 0.0261894 
0.0263119 0.0263986 0.0264527 0.0264775 0.026476 0.0264509 0.0264049 0.0263408 0.026262 
0.0261734 0.0260828 0.0260049 0.0259658 0.0260144 0.0262353 0.0267739 0.0278506 0.0297687 
0.0328497 0.0373411 0.0431913 0.0499678 0.057325 0.0649607 0.072618 0.0800881 0.0871945 
0.0937874 0.0997359 0.104924 0.10925 0.112621 0.114955 0.116177 0.116221 0.0253463 
0.0256467 0.025897 0.0261011 0.0262622 0.0263839 0.0264695 0.0265224 0.0265459 0.026543 
0.0265164 0.0264689 0.0264032 0.0263223 0.0262308 0.0261359 0.0260512 0.0260007 0.0260301 
0.026219 0.0267065 0.0277068 0.0295223 0.0324835 0.0368615 0.0426637 0.0494515 0.0568608 
0.0645772 0.0723325 0.0799101 0.0871273 0.0938294 0.0998816 0.105165 0.109574 0.113015 
0.115402 0.11666 0.11672 0.0254199 0.0257207 0.0259711 0.0261749 0.0263353 0.0264561 
0.0265406 0.0265924 0.0266146 0.0266103 0.0265823 0.0265333 0.0264658 0.0263829 0.0262888 
0.02619 0.0260989 0.0260378 0.0260492 0.0262081 0.026647 0.0275736 0.0292883 0.0321298 
0.0363908 0.0421338 0.0489289 0.0563883 0.0641843 0.0720377 0.0797235 0.0870526 0.0938652 
0.100022 0.105402 0.109896 0.113407 0.115848 0.117143 0.11722 0.0254939 0.0257951 
0.0260455 0.026249 0.0264088 0.0265287 0.0266121 0.0266626 0.0266835 0.0266778 0.0266484 
0.0265979 0.0265288 0.026444 0.0263473 0.0262448 0.0261478 0.0260769 0.0260715 0.0262022 
0.0265949 0.0274508 0.0290665 0.0317893 0.0359308 0.0416014 0.0484003 0.0559078 0.0637822 
0.0717338 0.0795283 0.0869703 0.0938946 0.100158 0.105636 0.110215 0.113798 0.116294 
0.117625 0.117719 0.0255682 0.0258698 0.0261203 0.0263234 0.0264826 0.0266015 0.0266839 
0.0267331 0.0267526 0.0267456 0.0267148 0.0266628 0.0265921 0.0265055 0.0264064 0.0263005 
0.0261979 0.0261179 0.0260968 0.0262011 0.0265498 0.0273379 0.0288566 0.0314615 0.0354823 
0.0410674 0.0478663 0.0554192 0.0633707 0.0714205 0.0793244 0.0868803 0.0939175 0.100289 
0.105865 0.110532 0.114187 0.11674 0.118108 0.118219 0.0256429 0.0259449 0.0261954 
0.0263982 0.0265566 0.0266747 0.0267559 0.0268039 0.0268221 0.0268136 0.0267814 0.026728 
0.0266558 0.0265673 0.026466 0.0263568 0.0262491 0.0261606 0.0261249 0.0262044 0.0265116 
0.0272348 0.028659 0.0311463 0.0350434 0.0405349 0.0473275 0.0549227 0.0629499 0.0710978 
0.0791117 0.0867826 0.0939341 0.100415 0.106091 0.110846 0.114575 0.117184 0.118591 
0.118719 0.0257179 0.0260204 0.0262708 0.0264732 0.026631 0.0267481 0.0268282 0.0268749 
0.0268917 0.0268819 0.0268483 0.0267934 0.0267197 0.0266296 0.026526 0.0264138 0.0263013 
0.026205 0.0261556 0.026212 0.0264799 0.0271411 0.0284735 0.0308438 0.0346148 0.040005 
0.0467844 0.0544182 0.0625198 0.0707657 0.0788902 0.0866771 0.093944 0.100535 0.106313 
0.111158 0.114961 0.117628 0.119073 0.11922 0.0257933 0.0260962 0.0263466 0.0265486 
0.0267057 0.0268219 0.0269007 0.0269462 0.0269616 0.0269504 0.0269154 0.0268591 0.0267839 
0.0266921 0.0265864 0.0264714 0.0263545 0.0262509 0.0261888 0.0262235 0.0264544 0.0270563 
0.0282997 0.0305542 0.0341967 0.0394789 0.0462371 0.0539059 0.0620803 0.0704241 0.0786598 
0.0865638 0.0939474 0.10065 0.106531 0.111467 0.115346 0.118072 0.119556 0.119721 
0.025869 0.0261723 0.0264227 0.0266244 0.0267807 0.0268958 0.0269735 0.0270177 0.0270318 
0.0270192 0.0269827 0.026925 0.0268483 0.0267549 0.0266473 0.0265296 0.0264086 0.0262981 
0.0262243 0.0262387 0.0264348 0.02698 0.0281374 0.0302774 0.03379 0.0389581 0.0456858 
0.0533858 0.0616316 0.070073 0.0784204 0.0864424 0.0939441 0.10076 0.106745 0.111773 
0.115729 0.118515 0.120039 0.120222 0.025945 0.0262487 0.0264991 0.0267004 0.026856 
0.0269701 0.0270466 0.0270894 0.0271021 0.0270881 0.0270503 0.0269912 0.026913 0.0268181 
0.0267086 0.0265883 0.0264634 0.0263466 0.0262619 0.0262573 0.0264206 0.0269119 0.0279863 
0.0300135 0.0333953 0.038444 0.0451303 0.0528581 0.0611737 0.0697123 0.078172 0.0863131 
0.093934 0.100864 0.106955 0.112076 0.116111 0.118957 0.120521 0.120724 0.0260214 
0.0263255 0.0265759 0.0267767 0.0269315 0.0270446 0.0271199 0.0271614 0.0271727 0.0271573 
0.027118 0.0270575 0.026978 0.0268815 0.0267702 0.0266475 0.026519 0.0263963 0.0263014 
0.0262791 0.0264116 0.0268515 0.027846 0.0297621 0.0330132 0.0379382 0.0445707 0.0523227 
0.0607068 0.0693421 0.0779145 0.0861756 0.0939172 0.100964 0.107162 0.112377 0.116491 
0.119398 0.121004 0.121225 0.0260981 0.0264026 0.0266529 0.0268533 0.0270073 0.0271194 
0.0271934 0.0272336 0.0272435 0.0272266 0.027186 0.0271241 0.0270432 0.0269452 0.0268322 
0.0267072 0.0265753 0.0264471 0.0263428 0.0263038 0.0264075 0.0267985 0.0277162 0.0295231 
0.032644 0.0374429 0.0440064 0.05178 0.0602311 0.0689622 0.077648 0.08603 0.0938934 
0.101057 0.107364 0.112675 0.11687 0.119839 0.121487 0.121727 0.0261751 0.02648 
0.0267303 0.0269302 0.0270834 0.0271944 0.0272672 0.027306 0.0273145 0.0272962 0.0272542 
0.0271909 0.0271086 0.0270091 0.0268944 0.0267673 0.0266323 0.0264989 0.0263859 0.0263313 
0.026408 0.0267525 0.0275967 0.0292964 0.0322875 0.0369578 0.0434394 0.0512305 0.0597465 
0.0685727 0.0773722 0.0858761 0.0938627 0.101145 0.107562 0.112971 0.117247 0.120279 
0.121969 0.12223 0.0262525 0.0265577 0.0268079 0.0270073 0.0271598 0.0272697 0.0273412 
0.0273786 0.0273857 0.027366 0.0273225 0.0272579 0.0271742 0.0270733 0.026957 0.0268278 
0.0266898 0.0265516 0.0264305 0.0263614 0.0264129 0.0267134 0.0274871 0.0290822 0.0319435 
0.0364816 0.0428721 0.0506748 0.0592529 0.0681734 0.0770871 0.0857139 0.093825 0.101228 
0.107755 0.113263 0.117622 0.120718 0.122452 0.122733 0.0263301 0.0266358 0.0268859 
0.0270848 0.0272364 0.0273452 0.0274154 0.0274514 0.027457 0.0274359 0.0273911 0.0273251 
0.0272401 0.0271377 0.0270199 0.0268887 0.0267479 0.0266053 0.0264766 0.026394 0.0264218 
0.0266808 0.027387 0.0288804 0.0316123 0.0360148 0.0423056 0.0501133 0.0587504 0.0677644 
0.0767926 0.0855432 0.0937802 0.101304 0.107945 0.113553 0.117995 0.121157 0.122934 
0.123236 0.0264081 0.0267141 0.0269641 0.0271625 0.0273132 0.0274209 0.0274898 0.0275244 
0.0275286 0.0275061 0.0274598 0.0273925 0.0273061 0.0272024 0.027083 0.0269499 0.0268066 
0.0266597 0.0265241 0.0264289 0.0264346 0.0266544 0.0272961 0.0286907 0.031294 0.0355578 
0.0417412 0.0495459 0.058239 0.0673456 0.0764887 0.0853641 0.0937282 0.101375 0.10813 
0.113839 0.118367 0.121595 0.123416 0.123739 0.0264863 0.0267927 0.0270426 0.0272405 
0.0273903 0.0274969 0.0275645 0.0275976 0.0276004 0.0275764 0.0275287 0.02746 0.0273723 
0.0272673 0.0271465 0.0270115 0.0268657 0.026715 0.0265728 0.0264659 0.0264508 0.0266338 
0.0272139 0.0285129 0.0309888 0.0351115 0.04118 0.0489728 0.0577187 0.066917 0.0761753 
0.0851764 0.0936689 0.101441 0.108311 0.114123 0.118737 0.122032 0.123899 0.124243 
0.0265649 0.0268717 0.0271214 0.0273188 0.0274677 0.027573 0.0276393 0.027671 0.0276723 
0.0276469 0.0275978 0.0275278 0.0274388 0.0273324 0.0272101 0.0270734 0.0269253 0.0267709 
0.0266226 0.0265049 0.0264704 0.0266187 0.0271401 0.0283466 0.0306967 0.0346765 0.0406237 
0.0483939 0.0571896 0.0664787 0.0758523 0.0849802 0.0936023 0.1015 0.108488 0.114404 
0.119106 0.122468 0.124381 0.124746 0.0266437 0.0269509 0.0272005 0.0273973 0.0275453 
0.0276494 0.0277143 0.0277446 0.0277444 0.0277175 0.0276671 0.0275957 0.0275054 0.0273977 
0.027274 0.0271357 0.0269853 0.0268275 0.0266735 0.0265457 0.026493 0.0266087 0.0270742 
0.0281916 0.0304175 0.0342536 0.0400738 0.0478089 0.0566515 0.0660307 0.0755198 0.0847752 
0.0935284 0.101554 0.10866 0.114682 0.119472 0.122904 0.124863 0.125251 0.0267229 
0.0270304 0.0272799 0.027476 0.0276231 0.0277261 0.0277896 0.0278184 0.0278167 0.0277884 
0.0277365 0.0276638 0.0275722 0.0274632 0.0273381 0.0271982 0.0270456 0.0268846 0.0267253 
0.0265882 0.0265184 0.0266036 0.0270157 0.0280474 0.030151 0.0338434 0.0395317 0.0472179 
0.0561047 0.0655731 0.0751775 0.0845616 0.0934469 0.101601 0.108828 0.114956 0.119837 
0.123338 0.125345 0.125755 0.0268023 0.0271102 0.0273595 0.0275551 0.0277011 0.0278029 
0.027865 0.0278923 0.0278892 0.0278594 0.0278061 0.0277321 0.0276392 0.0275289 0.0274025 
0.027261 0.0271064 0.0269424 0.026778 0.0266322 0.0265465 0.026603 0.0269645 0.0279138 
0.0298968 0.0334459 0.0390005 0.0466198 0.0555492 0.0651061 0.0748255 0.0843391 0.0933579 
0.101643 0.108991 0.115228 0.1202 0.123772 0.125827 0.12626 0.0268821 0.0271903 
0.0274394 0.0276343 0.0277794 0.0278799 0.0279406 0.0279665 0.0279618 0.0279305 0.0278759 
0.0278005 0.0277063 0.0275948 0.0274671 0.027324 0.0271674 0.0270006 0.0268316 0.0266777 
0.026577 0.0266068 0.0269202 0.0277906 0.0296554 0.0330608 0.0384773 0.0460185 0.0549858 
0.0646294 0.0744637 0.0841077 0.0932613 0.101678 0.10915 0.115496 0.120561 0.124206 
0.126309 0.126765 0.0269621 0.0272706 0.0275196 0.0277139 0.0278579 0.0279571 0.0280164 
0.0280408 0.0280346 0.0280019 0.0279458 0.0278691 0.0277737 0.0276609 0.0275318 0.0273874 
0.0272289 0.0270594 0.026886 0.0267246 0.02661 0.0266147 0.0268826 0.0276773 0.0294269 
0.0326882 0.0379623 0.0454151 0.0544149 0.0641429 0.074092 0.0838673 0.093157 0.101707 
0.109304 0.115762 0.12092 0.124638 0.126791 0.127271 0.0270424 0.0273513 0.0276 
0.0277936 0.0279367 0.0280346 0.0280924 0.0281152 0.0281075 0.0280733 0.0280159 0.0279379 
0.0278412 0.0277272 0.0275968 0.0274509 0.0272906 0.0271186 0.0269411 0.0267727 0.0266451 
0.0266263 0.0268513 0.0275737 0.029211 0.0323285 0.0374558 0.0448108 0.0538367 0.0636467 
0.0737103 0.0836177 0.0930448 0.10173 0.109453 0.116024 0.121278 0.12507 0.127273 
0.127776 0.027123 0.0274322 0.0276807 0.0278736 0.0280156 0.0281122 0.0281686 0.0281899 
0.0281806 0.028145 0.0280862 0.0280068 0.0279089 0.0277936 0.027662 0.0275147 0.0273526 
0.0271782 0.0269968 0.0268219 0.0266823 0.0266415 0.026826 0.0274793 0.0290075 0.0319817 
0.0369584 0.0442068 0.0532511 0.0631408 0.0733185 0.083359 0.0929249 0.101747 0.109598 
0.116283 0.121633 0.1255 0.127755 0.128282 0.0272038 0.0275134 0.0277616 0.0279539 
0.0280948 0.02819 0.0282449 0.0282647 0.0282539 0.0282168 0.0281566 0.0280759 0.0279767 
0.0278603 0.0277274 0.0275787 0.027415 0.0272383 0.0270533 0.0268722 0.0267214 0.02666 
0.0268064 0.0273938 0.0288162 0.0316483 0.0364708 0.0436042 0.052658 0.062625 0.0729167 
0.083091 0.092797 0.101757 0.109738 0.116539 0.121987 0.12593 0.128236 0.128789 
0.027285 0.0275948 0.0278428 0.0280343 0.0281741 0.028268 0.0283214 0.0283396 0.0283273 
0.0282887 0.0282271 0.0281452 0.0280447 0.0279271 0.0277929 0.0276429 0.0274775 0.0272987 
0.0271103 0.0269235 0.0267622 0.0266816 0.0267921 0.0273166 0.0286368 0.0313281 0.0359939 
0.0430045 0.0520575 0.0620993 0.0725048 0.0828138 0.0926611 0.101761 0.109873 0.116791 
0.122339 0.126359 0.128718 0.129295 0.0273664 0.0276765 0.0279243 0.028115 0.0282537 
0.0283462 0.0283981 0.0284147 0.0284009 0.0283608 0.0282979 0.0282146 0.0281129 0.0279941 
0.0278587 0.0277074 0.0275404 0.0273594 0.0271678 0.0269757 0.0268046 0.026706 0.0267828 
0.0272474 0.0284688 0.0310212 0.0355285 0.0424091 0.0514491 0.0615637 0.0720828 0.0825271 
0.0925172 0.101759 0.110003 0.117041 0.122688 0.126787 0.129199 0.129802 0.0274481 
0.0277585 0.028006 0.028196 0.0283335 0.0284246 0.0284749 0.02849 0.0284746 0.0284331 
0.0283687 0.0282842 0.0281813 0.0280612 0.0279247 0.027772 0.0276035 0.0274205 0.0272258 
0.0270287 0.0268486 0.026733 0.0267782 0.0271857 0.0283121 0.0307274 0.0350752 0.0418198 
0.0508327 0.0610181 0.0716508 0.082231 0.0923652 0.101749 0.110128 0.117286 0.123036 
0.127214 0.12968 0.130309 0.02753 0.0278408 0.0280879 0.0282771 0.0284135 0.0285032 
0.0285519 0.0285654 0.0285485 0.0285055 0.0284398 0.0283539 0.0282498 0.0281286 0.0279908 
0.0278368 0.0276668 0.0274818 0.0272843 0.0270824 0.0268939 0.0267624 0.026778 0.0271313 
0.0281663 0.0304462 0.0346344 0.0412382 0.050208 0.0604625 0.0712088 0.0819253 0.092205 
0.101734 0.110249 0.117529 0.123382 0.127641 0.130161 0.130817 0.0276123 0.0279233 
0.0281701 0.0283585 0.0284936 0.0285819 0.0286291 0.028641 0.0286225 0.028578 0.0285109 
0.0284238 0.0283185 0.0281961 0.0280571 0.0279019 0.0277304 0.0275435 0.0273433 0.0271368 
0.0269405 0.0267941 0.026782 0.0270837 0.0280311 0.0301777 0.0342062 0.0406662 0.0495749 
0.0598973 0.0707569 0.0816099 0.0920366 0.101711 0.110364 0.117768 0.123725 0.128066 
0.130642 0.131324 0.0276948 0.028006 0.0282525 0.0284401 0.028574 0.0286608 0.0287064 
0.0287167 0.0286967 0.0286507 0.0285823 0.0284939 0.0283873 0.0282637 0.0281236 0.0279671 
0.0277942 0.0276054 0.0274027 0.027192 0.0269883 0.026828 0.02679 0.0270427 0.0279062 
0.0299224 0.0337903 0.0401009 0.0489372 0.059323 0.0702947 0.0812848 0.0918597 0.101682 
0.110474 0.118003 0.124067 0.128491 0.131123 0.131832 0.0277775 0.0280891 0.0283352 
0.0285219 0.0286546 0.0287399 0.0287839 0.0287926 0.028771 0.0287236 0.0286537 0.0285641 
0.0284563 0.0283316 0.0281903 0.0280325 0.0278582 0.0276676 0.0274624 0.0272477 0.0270372 
0.0268639 0.0268017 0.0270082 0.0277913 0.0296802 0.0333869 0.0395428 0.0482955 0.0587398 
0.0698222 0.0809498 0.0916743 0.101646 0.11058 0.118235 0.124406 0.128914 0.131604 
0.132341 0.0278605 0.0281723 0.0284181 0.0286039 0.0287353 0.0288192 0.0288615 0.0288686 
0.0288454 0.0287965 0.0287254 0.0286344 0.0285255 0.0283996 0.0282571 0.0280981 0.0279224 
0.0277301 0.0275225 0.027304 0.0270872 0.0269017 0.0268168 0.0269797 0.0276861 0.0294509 
0.0329965 0.0389922 0.047651 0.0581479 0.0693393 0.0806048 0.0914803 0.101603 0.11068 
0.118464 0.124744 0.129337 0.132085 0.132849 0.0279438 0.0282559 0.0285012 0.0286861 
0.0288162 0.0288986 0.0289393 0.0289447 0.02892 0.0288697 0.0287971 0.0287049 0.0285948 
0.0284678 0.0283242 0.0281639 0.0279869 0.0277928 0.027583 0.0273609 0.0271381 0.0269412 
0.0268351 0.026957 0.02759 0.0292344 0.0326192 0.0384498 0.0470048 0.0575471 0.068846 
0.0802498 0.0912777 0.101553 0.110774 0.118689 0.125079 0.129758 0.132565 0.133358 
0.0280273 0.0283396 0.0285845 0.0287685 0.0288974 0.0289781 0.0290173 0.029021 0.0289948 
0.0289429 0.0288691 0.0287756 0.0286643 0.0285361 0.0283914 0.0282299 0.0280515 0.0278558 
0.0276438 0.0274183 0.0271898 0.0269824 0.0268564 0.0269396 0.0275028 0.0290303 0.0322553 
0.0379165 0.0463578 0.0569373 0.0683421 0.0798847 0.0910664 0.101496 0.110864 0.11891 
0.125412 0.130179 0.133045 0.133867 0.0281111 0.0284236 0.0286681 0.0288512 0.0289786 
0.0290579 0.0290953 0.0290975 0.0290696 0.0290164 0.0289411 0.0288465 0.028734 0.0286047 
0.0284588 0.0282961 0.0281163 0.027919 0.0277048 0.0274761 0.0272424 0.0270251 0.0268804 
0.0269273 0.0274239 0.0288383 0.0319051 0.0373929 0.0457115 0.0563183 0.0678275 0.0795094 
0.0908463 0.101432 0.110948 0.119128 0.125743 0.130598 0.133525 0.134376 0.0281951 
0.0285079 0.0287519 0.028934 0.0290601 0.0291377 0.0291735 0.029174 0.0291446 0.0290899 
0.0290134 0.0289175 0.0288038 0.0286734 0.0285263 0.0283625 0.0281814 0.0279825 0.0277662 
0.0275344 0.0272957 0.0270692 0.026907 0.0269198 0.027353 0.0286582 0.0315684 0.03688 
0.0450671 0.0556898 0.0673021 0.079124 0.0906172 0.10136 0.111027 0.119342 0.126072 
0.131017 0.134005 0.134886 0.0282794 0.0285924 0.0288359 0.029017 0.0291417 0.0292178 
0.0292519 0.0292507 0.0292198 0.0291636 0.0290857 0.0289886 0.0288739 0.0287423 0.0285941 
0.028429 0.0282466 0.0280461 0.0278279 0.0275932 0.0273496 0.0271146 0.026936 0.0269167 
0.0272896 0.0284896 0.0312451 0.0363786 0.0444264 0.0550515 0.0667658 0.0787283 0.0903792 
0.101282 0.1111 0.119552 0.126398 0.131435 0.134485 0.135396 0.0283639 0.0286771 
0.0289201 0.0291002 0.0292235 0.029298 0.0293304 0.0293276 0.029295 0.0292374 0.0291582 
0.0290599 0.028944 0.0288113 0.028662 0.0284957 0.028312 0.02811 0.0278897 0.0276523 
0.0274042 0.0271611 0.0269671 0.0269178 0.0272333 0.0283323 0.0309351 0.0358893 0.0437909 
0.0544031 0.0662184 0.0783225 0.0901321 0.101196 0.111168 0.119758 0.126723 0.131851 
0.134964 0.135906 0.0284487 0.028762 0.0290046 0.0291836 0.0293055 0.0293783 0.029409 
0.0294045 0.0293704 0.0293114 0.0292309 0.0291314 0.0290144 0.0288806 0.0287301 0.0285627 
0.0283776 0.0281741 0.0279519 0.0277118 0.0274594 0.0272088 0.0270003 0.0269229 0.0271838 
0.0281857 0.0306379 0.0354124 0.0431627 0.053744 0.0656601 0.0779066 0.0898759 0.101103 
0.11123 0.119961 0.127045 0.132267 0.135444 0.136416 0.0285337 0.0288472 0.0290892 
0.0292671 0.0293876 0.0294587 0.0294877 0.0294816 0.0294459 0.0293855 0.0293037 0.029203 
0.0290849 0.02895 0.0287984 0.0286298 0.0284434 0.0282384 0.0280143 0.0277716 0.0275151 
0.0272575 0.0270354 0.0269317 0.0271408 0.0280498 0.0303538 0.0349479 0.0425423 0.0530749 
0.065091 0.0774803 0.0896104 0.101002 0.111287 0.12016 0.127365 0.132681 0.135923 
0.136926 0.0286189 0.0289325 0.029174 0.0293508 0.0294698 0.0295393 0.0295666 0.0295588 
0.0295216 0.0294598 0.0293767 0.0292748 0.0291556 0.0290196 0.0288669 0.0286971 0.0285094 
0.0283029 0.028077 0.0278318 0.0275713 0.0273072 0.0270723 0.026944 0.0271042 0.0279242 
0.0300832 0.0344957 0.0419276 0.0523989 0.0645117 0.0770435 0.0893354 0.100894 0.111338 
0.120355 0.127682 0.133095 0.136401 0.137437 0.0287043 0.0290181 0.029259 0.0294347 
0.0295522 0.02962 0.0296456 0.0296361 0.0295974 0.0295341 0.0294498 0.0293468 0.0292264 
0.0290893 0.0289356 0.0287646 0.0285756 0.0283677 0.0281398 0.0278923 0.0276281 0.0273578 
0.0271109 0.0269596 0.0270735 0.0278085 0.029826 0.0340561 0.041319 0.0517167 0.0639223 
0.0765961 0.089051 0.100778 0.111384 0.120547 0.127997 0.133507 0.13688 0.137948 
0.0287899 0.0291039 0.0293442 0.0295188 0.0296347 0.0297008 0.0297247 0.0297135 0.0296733 
0.0296087 0.0295231 0.0294189 0.0292974 0.0291593 0.0290044 0.0288323 0.0286421 0.0284326 
0.028203 0.0279531 0.0276853 0.0274092 0.0271511 0.0269783 0.0270485 0.0277024 0.0295822 
0.0336295 0.0407168 0.0510293 0.0633227 0.0761378 0.0887569 0.100655 0.111423 0.120734 
0.12831 0.133918 0.137359 0.138459 0.0288758 0.0291899 0.0294296 0.029603 0.0297174 
0.0297818 0.0298039 0.0297911 0.0297493 0.0296833 0.0295965 0.0294912 0.0293686 0.0292294 
0.0290735 0.0289002 0.0287087 0.0284978 0.0282664 0.0280142 0.027743 0.0274614 0.0271927 
0.0269999 0.027029 0.0276056 0.0293514 0.0332162 0.0401215 0.0503376 0.0627129 0.0756687 
0.0884532 0.100523 0.111457 0.120917 0.128621 0.134328 0.137837 0.13897 0.0289619 
0.029276 0.0295151 0.0296873 0.0298002 0.0298628 0.0298831 0.0298687 0.0298254 0.0297581 
0.0296701 0.0295636 0.02944 0.0292998 0.0291427 0.0289683 0.0287755 0.0285632 0.02833 
0.0280756 0.0278011 0.0275143 0.0272358 0.0270241 0.0270145 0.0275175 0.0291335 0.0328166 
0.0395341 0.0496426 0.0620926 0.0751886 0.0881396 0.100384 0.111485 0.121097 0.128929 
0.134737 0.138315 0.139482 0.0290481 0.0293624 0.0296008 0.0297718 0.029883 0.0299439 
0.0299625 0.0299465 0.0299017 0.029833 0.0297438 0.0296362 0.0295116 0.0293703 0.0292122 
0.0290366 0.0288425 0.0286288 0.0283938 0.0281373 0.0278597 0.0275679 0.0272802 0.0270507 
0.0270048 0.0274377 0.0289281 0.0324309 0.0389553 0.0489452 0.0614616 0.0746972 0.0878161 
0.100237 0.111507 0.121272 0.129235 0.135145 0.138792 0.139994 0.0291345 0.0294489 
0.0296866 0.0298564 0.029966 0.0300252 0.030042 0.0300243 0.029978 0.029908 0.0298176 
0.029709 0.0295833 0.029441 0.0292818 0.0291051 0.0289098 0.0286946 0.028458 0.0281993 
0.0279186 0.0276221 0.0273257 0.0270797 0.0269996 0.0273659 0.028735 0.0320591 0.0383861 
0.0482469 0.0608197 0.0741946 0.0874826 0.100082 0.111523 0.121443 0.129538 0.135552 
0.13927 0.140505 0.0292211 0.0295356 0.0297726 0.0299411 0.0300491 0.0301065 0.0301216 
0.0301022 0.0300545 0.0299832 0.0298916 0.0297819 0.0296552 0.0295119 0.0293517 0.0291738 
0.0289772 0.0287606 0.0285223 0.0282615 0.0279779 0.0276769 0.0273724 0.0271107 0.0269985 
0.0273016 0.0285537 0.0317014 0.0378273 0.0475489 0.0601663 0.0736803 0.0871392 0.0999186 
0.111533 0.121611 0.129839 0.135957 0.139747 0.141017 0.0293079 0.0296224 0.0298587 
0.0300259 0.0301323 0.0301879 0.0302012 0.0301802 0.030131 0.0300585 0.0299658 0.029855 
0.0297273 0.029583 0.0294217 0.0292428 0.0290449 0.0288269 0.0285869 0.028324 0.0280376 
0.0277322 0.0274201 0.0271437 0.0270015 0.0272444 0.028384 0.0313576 0.0372797 0.0468528 
0.059501 0.0731544 0.0867856 0.0997471 0.111537 0.121774 0.130137 0.136362 0.140223 
0.14153 0.0293949 0.0297094 0.0299449 0.0301108 0.0302155 0.0302693 0.0302809 0.0302583 
0.0302077 0.0301339 0.03004 0.0299283 0.0297996 0.0296543 0.029492 0.0293119 0.0291128 
0.0288933 0.0286517 0.0283868 0.0280976 0.0277881 0.0274687 0.0271785 0.0270081 0.0271939 
0.0282255 0.0310273 0.0367441 0.0461606 0.0588233 0.0726165 0.0864221 0.0995674 0.111535 
0.121933 0.130433 0.136765 0.1407 0.142042 0.0294819 0.0297965 0.0300313 0.0301958 
0.0302988 0.0303509 0.0303607 0.0303365 0.0302844 0.0302094 0.0301145 0.0300017 0.0298721 
0.0297258 0.0295624 0.0293812 0.0291809 0.0289601 0.0287168 0.0284499 0.028158 0.0278444 
0.0275183 0.027215 0.0270182 0.0271497 0.0280779 0.0307103 0.0362208 0.0454731 0.0581332 
0.0720667 0.0860485 0.0993793 0.111527 0.122088 0.130727 0.137167 0.141176 0.142554 
0.0295691 0.0298837 0.0301177 0.0302808 0.0303822 0.0304324 0.0304405 0.0304147 0.0303613 
0.030285 0.030189 0.0300753 0.0299447 0.0297975 0.0296331 0.0294508 0.0292493 0.029027 
0.0287821 0.0285132 0.0282187 0.0279012 0.0275688 0.027253 0.0270316 0.0271116 0.0279409 
0.0304066 0.0357101 0.0447938 0.0574291 0.071505 0.0856648 0.0991828 0.111512 0.122239 
0.131018 0.137568 0.141652 0.143067 0.0296565 0.0299711 0.0302042 0.030366 0.0304656 
0.030514 0.0305204 0.030493 0.0304382 0.0303607 0.0302637 0.030149 0.0300175 0.0298693 
0.029704 0.0295206 0.0293179 0.0290942 0.0288477 0.0285768 0.0282798 0.0279585 0.0276201 
0.0272927 0.0270482 0.0270794 0.0278143 0.0301166 0.0352116 0.0441186 0.0567154 0.0709319 
0.0852707 0.0989777 0.111492 0.122385 0.131307 0.137968 0.142127 0.143579 0.0297439 
0.0300585 0.0302908 0.0304511 0.030549 0.0305956 0.0306002 0.0305713 0.0305152 0.0304366 
0.0303385 0.0302229 0.0300905 0.0299414 0.0297751 0.0295907 0.0293867 0.0291617 0.0289136 
0.0286407 0.0283413 0.0280163 0.0276722 0.0273337 0.0270677 0.0270529 0.0276976 0.0298407 
0.0347258 0.0434483 0.0559923 0.0703475 0.0848658 0.0987638 0.111465 0.122527 0.131593 
0.138367 0.142603 0.144092 0.0298314 0.030146 0.0303774 0.0305363 0.0306325 0.0306772 
0.0306801 0.0306497 0.0305922 0.0305125 0.0304134 0.0302969 0.0301637 0.0300137 0.0298464 
0.0296609 0.0294558 0.0292294 0.0289797 0.0287049 0.0284031 0.0280746 0.027725 0.0273762 
0.0270899 0.0270317 0.0275906 0.0295786 0.034253 0.0427827 0.055261 0.0697517 0.0844502 
0.0985411 0.111431 0.122665 0.131877 0.138764 0.143077 0.144605 0.0299191 0.0302336 
0.0304641 0.0306215 0.0307159 0.0307589 0.0307601 0.0307281 0.0306693 0.0305885 0.0304885 
0.0303711 0.030237 0.0300862 0.029918 0.0297314 0.0295251 0.0292973 0.0290462 0.0287693 
0.0284652 0.0281333 0.0277786 0.0274199 0.0271148 0.0270157 0.0274929 0.0293302 0.0337937 
0.0421225 0.0545221 0.0691444 0.0840236 0.0983095 0.111391 0.122799 0.132158 0.13916 
0.143552 0.145117 0.0300067 0.0303212 0.0305508 0.0307067 0.0307993 0.0308405 0.03084 
0.0308065 0.0307465 0.0306646 0.0305637 0.0304454 0.0303105 0.0301588 0.0299898 0.0298022 
0.0295947 0.0293656 0.0291129 0.0288341 0.0285277 0.0281924 0.0278328 0.0274649 0.027142 
0.0270045 0.027404 0.0290952 0.0333483 0.0414683 0.0537765 0.0685254 0.0835859 0.0980689 
0.111345 0.122928 0.132437 0.139555 0.144026 0.14563 0.0300945 0.0304088 0.0306375 
0.0307919 0.0308827 0.030922 0.0309199 0.030885 0.0308237 0.0307408 0.030639 0.0305199 
0.0303842 0.0302317 0.0300618 0.0298732 0.0296646 0.0294341 0.0291799 0.0288993 0.0285906 
0.0282521 0.0278877 0.0275111 0.0271716 0.0269978 0.0273236 0.0288733 0.0329171 0.040821 
0.0530249 0.0678944 0.083137 0.0978191 0.111291 0.123053 0.132713 0.139949 0.1445 
0.146143 0.0301822 0.0304965 0.0307241 0.030877 0.0309661 0.0310036 0.0309997 0.0309634 
0.0309009 0.030817 0.0307144 0.0305945 0.0304581 0.0303048 0.030134 0.0299444 0.0297347 
0.029503 0.0292472 0.0289647 0.0286538 0.0283121 0.0279433 0.0275584 0.0272032 0.0269954 
0.0272512 0.0286644 0.0325005 0.0401814 0.0522682 0.0672511 0.0826767 0.0975601 0.111232 
0.123173 0.132986 0.140341 0.144973 0.146656 0.03027 0.0305841 0.0308108 0.0309621 
0.0310494 0.031085 0.0310795 0.0310418 0.0309782 0.0308933 0.0307899 0.0306693 0.0305321 
0.0303781 0.0302064 0.0300159 0.0298051 0.0295721 0.0293148 0.0290305 0.0287174 0.0283727 
0.0279994 0.0276067 0.0272369 0.026997 0.0271864 0.0284679 0.0320985 0.0395506 0.0515076 
0.066595 0.0822046 0.0972918 0.111165 0.12329 0.133257 0.140732 0.145446 0.147169 
0.0303577 0.0306717 0.0308974 0.0310472 0.0311325 0.0311664 0.0311593 0.0311202 0.0310555 
0.0309696 0.0308654 0.0307442 0.0306063 0.0304515 0.0302791 0.0300876 0.0298758 0.0296415 
0.0293828 0.0290967 0.0287813 0.0284337 0.0280562 0.0276561 0.0272723 0.0270024 0.0271289 
0.0282835 0.0317113 0.0389294 0.0507442 0.0659258 0.0817207 0.0970141 0.111092 0.123401 
0.133526 0.141122 0.145918 0.147681 0.0304454 0.0307593 0.0309839 0.0311321 0.0312156 
0.0312477 0.031239 0.0311985 0.0311327 0.031046 0.0309411 0.0308192 0.0306807 0.0305252 
0.030352 0.0301596 0.0299468 0.0297112 0.029451 0.0291632 0.0288457 0.0284951 0.0281135 
0.0277064 0.0273095 0.0270113 0.0270782 0.028111 0.0313388 0.0383188 0.0499795 0.0652428 
0.0812246 0.0967269 0.111012 0.123509 0.133792 0.141511 0.14639 0.148194 0.0305331 
0.0308467 0.0310703 0.0312169 0.0312986 0.0313289 0.0313186 0.0312768 0.03121 0.0311225 
0.0310168 0.0308943 0.0307552 0.0305991 0.0304251 0.0302319 0.030018 0.0297813 0.0295197 
0.0292301 0.0289104 0.028557 0.0281714 0.0277577 0.0273482 0.0270236 0.0270339 0.02795 
0.0309808 0.0377195 0.0492151 0.0645454 0.0807161 0.0964303 0.110925 0.123612 0.134055 
0.141899 0.146862 0.148707 0.0306207 0.0309341 0.0311566 0.0313015 0.0313814 0.0314099 
0.0313981 0.031355 0.0312872 0.0311989 0.0310926 0.0309695 0.0308299 0.0306731 0.0304985 
0.0303044 0.0300896 0.0298517 0.0295886 0.0292973 0.0289755 0.0286194 0.0282299 0.0278098 
0.0273885 0.0270391 0.0269957 0.0278001 0.0306371 0.0371324 0.0484527 0.063833 0.080195 
0.0961241 0.110831 0.12371 0.134316 0.142285 0.147333 0.149219 0.0307082 0.0310214 
0.0312428 0.031386 0.0314641 0.0314908 0.0314774 0.0314332 0.0313644 0.0312754 0.0311685 
0.0310449 0.0309047 0.0307474 0.030572 0.0303772 0.0301614 0.0299224 0.029658 0.029365 
0.0290411 0.0286823 0.028289 0.0278628 0.0274303 0.0270576 0.0269632 0.027661 0.0303073 
0.0365579 0.0476933 0.0631056 0.0796611 0.0958085 0.11073 0.123804 0.134574 0.142671 
0.147804 0.149731 0.0307955 0.0311085 0.0313288 0.0314703 0.0315465 0.0315715 0.0315566 
0.0315112 0.0314415 0.0313518 0.0312444 0.0311203 0.0309796 0.0308218 0.0306458 0.0304503 
0.0302336 0.0299934 0.0297277 0.0294331 0.0291071 0.0287457 0.0283486 0.0279168 0.0274734 
0.027079 0.0269362 0.0275323 0.0299913 0.0359963 0.0469401 0.0623614 0.0791145 0.0954832 
0.110622 0.123894 0.13483 0.143055 0.148274 0.150243 0.0308828 0.0311955 0.0314145 
0.0315544 0.0316288 0.031652 0.0316357 0.0315891 0.0315186 0.0314283 0.0313204 0.0311958 
0.0310547 0.0308964 0.0307199 0.0305236 0.030306 0.0300648 0.0297978 0.0295016 0.0291736 
0.0288096 0.0284089 0.0279715 0.0275179 0.0271031 0.0269146 0.0274139 0.0296897 0.0354475 
0.0461906 0.0616035 0.0785553 0.095148 0.110507 0.123979 0.135083 0.143437 0.148744 
0.150755 0.0309698 0.0312823 0.0315001 0.0316383 0.0317108 0.0317323 0.0317145 0.0316669 
0.0315956 0.0315047 0.0313963 0.0312714 0.0311299 0.0309712 0.0307941 0.0305972 0.0303788 
0.0301366 0.0298682 0.0295705 0.0292405 0.0288741 0.0284697 0.0280272 0.0275638 0.0271299 
0.0268981 0.0273054 0.0294027 0.0349119 0.0454443 0.0608329 0.0779837 0.0948026 0.110384 
0.124059 0.135334 0.143819 0.149213 0.151267 0.0310567 0.0313688 0.0315855 0.0317219 
0.0317925 0.0318124 0.0317932 0.0317445 0.0316724 0.031581 0.0314723 0.0313471 0.0312053 
0.0310461 0.0308686 0.0306711 0.0304519 0.0302087 0.0299391 0.0296399 0.0293079 0.0289391 
0.0285313 0.0280837 0.027611 0.0271591 0.0268866 0.0272065 0.0291302 0.0343898 0.0447013 
0.0600503 0.0773996 0.0944468 0.110254 0.124135 0.135582 0.144199 0.149682 0.151779 
0.0311433 0.0314551 0.0316705 0.0318052 0.031874 0.0318921 0.0318716 0.0318219 0.0317492 
0.0316573 0.0315483 0.0314228 0.0312807 0.0311212 0.0309433 0.0307452 0.0305253 0.0302812 
0.0300105 0.0297098 0.0293759 0.0290047 0.0285934 0.028141 0.0276594 0.0271908 0.0268798 
0.0271167 0.0288722 0.0338818 0.043962 0.0592563 0.0768027 0.0940805 0.110116 0.124206 
0.135828 0.144579 0.15015 0.15229 0.0312297 0.0315412 0.0317553 0.0318882 0.0319551 
0.0319716 0.0319498 0.0318992 0.0318258 0.0317335 0.0316242 0.0314985 0.0313562 0.0311965 
0.0310182 0.0308196 0.0305991 0.0303541 0.0300822 0.0297801 0.0294444 0.0290709 0.0286563 
0.0281992 0.0277092 0.0272247 0.0268775 0.0270358 0.0286284 0.0333884 0.0432269 0.0584516 
0.0761928 0.0937034 0.109971 0.124273 0.136071 0.144957 0.150617 0.152801 0.0313158 
0.0316269 0.0318397 0.0319708 0.0320359 0.0320508 0.0320277 0.0319762 0.0319023 0.0318096 
0.0317001 0.0315743 0.0314319 0.0312719 0.0310933 0.0308943 0.0306732 0.0304274 0.0301544 
0.029851 0.0295134 0.0291377 0.0287199 0.0282583 0.0277602 0.0272608 0.0268794 0.0269633 
0.0283986 0.03291 0.0424969 0.0576367 0.0755697 0.0933155 0.109818 0.124335 0.136312 
0.145334 0.151084 0.153311 0.0314016 0.0317122 0.0319237 0.0320531 0.0321163 0.0321296 
0.0321053 0.032053 0.0319785 0.0318856 0.031776 0.0316501 0.0315076 0.0313475 0.0311686 
0.0309693 0.0307476 0.0305011 0.0302271 0.0299223 0.029583 0.0292051 0.0287841 0.0283183 
0.0278125 0.027299 0.0268855 0.0268989 0.0281825 0.032447 0.0417729 0.0568123 0.0749328 
0.0929165 0.109658 0.124392 0.13655 0.145709 0.151551 0.153821 0.031487 0.0317973 
0.0320074 0.0321349 0.0321964 0.0322081 0.0321826 0.0321295 0.0320546 0.0319615 0.0318518 
0.0317259 0.0315833 0.0314231 0.0312441 0.0310445 0.0308223 0.0305751 0.0303002 0.0299942 
0.0296533 0.0292731 0.0288492 0.0283791 0.0278659 0.0273391 0.0268954 0.0268421 0.0279796 
0.0319998 0.0410558 0.055979 0.0742818 0.0925061 0.109489 0.124445 0.136786 0.146084 
0.152016 0.154331 0.0315721 0.0318819 0.0320907 0.0322164 0.0322759 0.0322861 0.0322596 
0.0322057 0.0321305 0.0320372 0.0319275 0.0318016 0.0316591 0.0314989 0.0313198 0.0311199 
0.0308974 0.0306496 0.0303738 0.0300666 0.0297241 0.0293419 0.0289149 0.0284408 0.0279206 
0.0273812 0.0269089 0.0267927 0.0277897 0.0315687 0.0403467 0.0551379 0.0736161 0.0920842 
0.109312 0.124493 0.137019 0.146457 0.152481 0.15484 0.0316568 0.0319661 0.0321734 
0.0322973 0.0323551 0.0323637 0.0323361 0.0322816 0.0322061 0.0321128 0.0320031 0.0318773 
0.031735 0.0315748 0.0313957 0.0311957 0.0309728 0.0307244 0.0304479 0.0301396 0.0297955 
0.0294113 0.0289815 0.0285033 0.0279764 0.027425 0.0269259 0.0267501 0.0276124 0.0311537 
0.0396464 0.0542898 0.0729351 0.0916504 0.109128 0.124537 0.13725 0.146829 0.152946 
0.155348 0.031741 0.0320498 0.0322558 0.0323777 0.0324337 0.0324409 0.0324123 0.0323572 
0.0322815 0.0321881 0.0320786 0.031953 0.0318108 0.0316508 0.0314718 0.0312716 0.0310485 
0.0307997 0.0305225 0.0302131 0.0298676 0.0294814 0.0290489 0.0285668 0.0280335 0.0274706 
0.0269462 0.0267141 0.0274472 0.030755 0.0389562 0.0534361 0.0722382 0.0912044 0.108935 
0.124576 0.137479 0.147201 0.15341 0.155856 0.0318248 0.0321331 0.0323375 0.0324577 
0.0325119 0.0325176 0.032488 0.0324324 0.0323565 0.0322632 0.032154 0.0320286 0.0318867 
0.0317269 0.031548 0.0313478 0.0311246 0.0308754 0.0305976 0.0302872 0.0299404 0.0295523 
0.0291171 0.0286312 0.0280917 0.0275179 0.0269697 0.0266842 0.0272939 0.0303724 0.038277 
0.0525781 0.0715246 0.090746 0.108734 0.12461 0.137706 0.147571 0.153873 0.156363 
0.0319081 0.0322158 0.0324188 0.032537 0.0325894 0.0325938 0.0325633 0.0325073 0.0324313 
0.0323381 0.0322291 0.0321041 0.0319625 0.031803 0.0316243 0.0314243 0.031201 0.0309515 
0.0306732 0.0303619 0.0300139 0.0296239 0.0291862 0.0286965 0.0281512 0.0275668 0.0269963 
0.0266602 0.0271521 0.0300058 0.0376097 0.0517173 0.0707936 0.0902747 0.108526 0.124639 
0.13793 0.14794 0.154335 0.15687 0.0319909 0.0322979 0.0324994 0.0326158 0.0326664 
0.0326694 0.0326381 0.0325817 0.0325057 0.0324127 0.0323041 0.0321795 0.0320383 0.0318792 
0.0317008 0.031501 0.0312777 0.031028 0.0307493 0.0304372 0.030088 0.0296962 0.0292562 
0.0287628 0.0282119 0.0276174 0.0270258 0.0266416 0.0270213 0.0296548 0.0369553 0.0508555 
0.0700442 0.0897903 0.108309 0.124664 0.138152 0.148308 0.154797 0.157376 0.0320731 
0.0323795 0.0325794 0.0326939 0.0327428 0.0327445 0.0327124 0.0326557 0.0325797 0.0324871 
0.0323788 0.0322547 0.0321141 0.0319554 0.0317775 0.0315779 0.0313548 0.031105 0.0308259 
0.0305132 0.0301629 0.0297694 0.0293271 0.0288301 0.0282738 0.0276695 0.0270581 0.0266283 
0.0269013 0.0293191 0.0363145 0.0499944 0.0692758 0.0892925 0.108083 0.124684 0.138372 
0.148675 0.155258 0.157881 0.0321547 0.0324604 0.0326588 0.0327713 0.0328185 0.032819 
0.0327862 0.0327292 0.0326533 0.0325611 0.0324533 0.0323298 0.0321898 0.0320317 0.0318542 
0.0316549 0.0314321 0.0311823 0.0309031 0.0305897 0.0302386 0.0298434 0.0293989 0.0288985 
0.0283371 0.0277232 0.0270933 0.0266201 0.0267918 0.0289984 0.0356879 0.0491347 0.0684883 
0.0887811 0.10785 0.124699 0.13859 0.149041 0.155718 0.158385 0.0322356 0.0325407 
0.0327375 0.0328481 0.0328936 0.0328928 0.0328594 0.0328022 0.0327265 0.0326347 0.0325276 
0.0324047 0.0322653 0.0321079 0.031931 0.0317322 0.0315098 0.0312601 0.0309808 0.0306669 
0.030315 0.0299183 0.0294718 0.0289679 0.0284016 0.0277786 0.0271312 0.0266167 0.0266925 
0.0286926 0.0350757 0.0482807 0.0676793 0.0882561 0.107608 0.12471 0.138806 0.149406 
0.156177 0.158887 0.032316 0.0326203 0.0328155 0.0329241 0.0329679 0.032966 0.0329319 
0.0328747 0.0327993 0.032708 0.0326015 0.0324794 0.0323408 0.0321841 0.0320079 0.0318097 
0.0315877 0.0313383 0.031059 0.0307447 0.0303922 0.029994 0.0295457 0.0290384 0.0284675 
0.0278356 0.0271719 0.0266181 0.026603 0.0284024 0.0344781 0.0474276 0.0668529 0.0877175 
0.107357 0.124716 0.13902 0.14977 0.156635 0.159389 0.0323956 0.0326992 0.0328927 
0.0329994 0.0330416 0.0330385 0.0330039 0.0329466 0.0328716 0.0327809 0.0326752 0.0325538 
0.0324161 0.0322602 0.0320849 0.0318873 0.031666 0.0314168 0.0311378 0.0308232 0.0304701 
0.0300707 0.0296206 0.0291101 0.0285349 0.0278942 0.0272152 0.0266241 0.0265233 0.0281279 
0.0338956 0.0465766 0.0660089 0.0871652 0.107098 0.124717 0.139232 0.150133 0.157093 
0.15989 0.0324745 0.0327773 0.0329691 0.0330739 0.0331144 0.0331102 0.0330752 0.033018 
0.0329434 0.0328533 0.0327484 0.032628 0.0324912 0.0323362 0.0321618 0.0319651 0.0317445 
0.0314958 0.0312171 0.0309024 0.0305489 0.0301483 0.0296966 0.0291829 0.0286036 0.0279546 
0.0272611 0.0266348 0.0264529 0.0278691 0.0333287 0.0457272 0.0651482 0.0865989 0.106829 
0.124713 0.139441 0.150495 0.157549 0.160389 0.0325527 0.0328547 0.0330447 0.0331475 
0.0331864 0.0331812 0.0331458 0.0330887 0.0330146 0.0329253 0.0328213 0.0327018 0.0325661 
0.0324122 0.0322388 0.032043 0.0318233 0.0315752 0.031297 0.0309822 0.0306285 0.0302268 
0.0297737 0.029257 0.0286738 0.0280168 0.0273097 0.0266498 0.0263914 0.0276259 0.032778 
0.0448801 0.064271 0.0860185 0.106551 0.124704 0.139649 0.150857 0.158004 0.160887 
0.0326301 0.0329312 0.0331195 0.0332203 0.0332576 0.0332514 0.0332157 0.0331587 0.0330852 
0.0329967 0.0328938 0.0327754 0.0326408 0.032488 0.0323158 0.032121 0.0319023 0.0316549 
0.0313773 0.0310627 0.030709 0.0303063 0.029852 0.0293324 0.0287456 0.0280807 0.0273608 
0.0266692 0.0263387 0.027398 0.0322442 0.0440358 0.0633779 0.0854234 0.106264 0.12469 
0.139856 0.151217 0.158459 0.161383 0.0327066 0.0330068 0.0331934 0.0332922 0.0333279 
0.0333208 0.0332848 0.0332281 0.0331553 0.0330677 0.0329658 0.0328486 0.0327153 0.0325637 
0.0323927 0.0321991 0.0319815 0.031735 0.0314582 0.0311439 0.0307903 0.0303868 0.0299315 
0.0294091 0.0288188 0.0281464 0.0274145 0.0266928 0.0262943 0.0271851 0.0317278 0.0431954 
0.0624691 0.0848132 0.105967 0.124671 0.14006 0.151577 0.158912 0.161877 0.0327823 
0.0330816 0.0332663 0.0333631 0.0333973 0.0333893 0.0333531 0.0332968 0.0332247 0.0331381 
0.0330374 0.0329214 0.0327894 0.0326392 0.0324696 0.0322773 0.0320609 0.0318155 0.0315396 
0.0312257 0.0308724 0.0304683 0.0300122 0.0294872 0.0288937 0.028214 0.0274708 0.0267204 
0.026258 0.0269868 0.0312293 0.0423597 0.061545 0.0841873 0.105661 0.124647 0.140263 
0.151935 0.159363 0.16237 0.0328572 0.0331555 0.0333383 0.0334331 0.0334658 0.033457 
0.0334207 0.0333648 0.0332935 0.0332079 0.0331084 0.0329937 0.0328632 0.0327144 0.0325464 
0.0323554 0.0321405 0.0318962 0.0316215 0.0313082 0.0309555 0.0305509 0.0300941 0.0295666 
0.0289703 0.0282835 0.0275296 0.0267519 0.0262293 0.0268028 0.0307493 0.0415299 0.0606062 
0.0835451 0.105344 0.124619 0.140464 0.152293 0.159814 0.162861 0.0329311 0.0332284 
0.0334093 0.0335021 0.0335333 0.0335238 0.0334874 0.033432 0.0333615 0.0332771 0.0331789 
0.0330657 0.0329367 0.0327894 0.032623 0.0324336 0.0322203 0.0319773 0.0317039 0.0313914 
0.0310393 0.0306345 0.0301772 0.0296475 0.0290485 0.0283548 0.027591 0.0267873 0.0262081 
0.0266327 0.0302881 0.0407072 0.0596534 0.0828858 0.105017 0.124585 0.140664 0.15265 
0.160263 0.163349 0.0330041 0.0333003 0.0334794 0.0335701 0.0335999 0.0335896 0.0335532 
0.0334983 0.0334288 0.0333456 0.0332488 0.0331371 0.0330097 0.0328642 0.0326995 0.0325118 
0.0323002 0.0320587 0.0317868 0.0314752 0.0311241 0.0307191 0.0302617 0.0297299 0.0291284 
0.0284282 0.0276549 0.0268264 0.026194 0.026476 0.0298461 0.0398929 0.0586872 0.0822088 
0.10468 0.124547 0.140862 0.153007 0.16071 0.163835 0.0330762 0.0333713 0.0335483 
0.0336371 0.0336654 0.0336544 0.0336181 0.0335639 0.0334954 0.0334134 0.0333181 0.033208 
0.0330824 0.0329386 0.0327758 0.0325899 0.0323802 0.0321403 0.0318701 0.0315597 0.0312097 
0.0308048 0.0303474 0.0298138 0.0292101 0.0285036 0.0277214 0.0268692 0.0261868 0.0263323 
0.0294233 0.0390881 0.0577087 0.0815131 0.104331 0.124504 0.14106 0.153362 0.161156 
0.164318 0.0331473 0.0334412 0.0336162 0.0337029 0.0337298 0.0337183 0.0336822 0.0336286 
0.0335612 0.0334805 0.0333868 0.0332783 0.0331545 0.0330126 0.0328518 0.0326679 0.0324602 
0.0322222 0.0319539 0.0316448 0.0312962 0.0308916 0.0304345 0.0298992 0.0292936 0.028581 
0.0277905 0.0269156 0.0261861 0.0262013 0.02902 0.0382941 0.0567192 0.0807978 0.103972 
0.124456 0.141255 0.153717 0.1616 0.164799 0.0332173 0.0335101 0.033683 0.0337677 
0.0337932 0.0337811 0.0337452 0.0336924 0.0336261 0.0335469 0.0334547 0.0333481 0.0332262 
0.0330863 0.0329276 0.0327458 0.0325403 0.0323043 0.032038 0.0317305 0.0313835 0.0309795 
0.030523 0.0299861 0.0293789 0.0286605 0.0278621 0.0269655 0.0261918 0.0260825 0.028636 
0.0375123 0.0557199 0.080062 0.103602 0.124403 0.14145 0.154072 0.162042 0.165277 
0.0332864 0.0335778 0.0337487 0.0338313 0.0338555 0.0338429 0.0338073 0.0337553 0.0336902 
0.0336124 0.033522 0.0334172 0.0332973 0.0331595 0.0330031 0.0328235 0.0326204 0.0323866 
0.0321226 0.0318168 0.0314716 0.0310684 0.0306127 0.0300747 0.0294662 0.0287422 0.0279364 
0.0270191 0.0262035 0.0259755 0.0282712 0.0367439 0.0547124 0.0793044 0.103219 0.124345 
0.141644 0.154425 0.162482 0.165751 0.0333543 0.0336445 0.0338133 0.0338938 0.0339167 
0.0339036 0.0338683 0.0338172 0.0337534 0.0336772 0.0335885 0.0334856 0.0333679 0.0332323 
0.0330782 0.032901 0.0327004 0.032469 0.0322074 0.0319037 0.0315606 0.0311584 0.0307039 
0.0301649 0.0295554 0.0288261 0.0280134 0.0270761 0.026221 0.0258799 0.0279253 0.0359901 
0.0536987 0.0785239 0.102825 0.124283 0.141837 0.154778 0.16292 0.166221 0.0334212 
0.0337101 0.0338766 0.0339551 0.0339767 0.0339633 0.0339283 0.0338781 0.0338157 0.0337411 
0.0336542 0.0335533 0.0334378 0.0333045 0.033153 0.0329783 0.0327804 0.0325515 0.0322927 
0.0319911 0.0316504 0.0312495 0.0307965 0.0302567 0.0296466 0.0289123 0.0280932 0.0271367 
0.0262443 0.0257954 0.0275979 0.0352519 0.0526807 0.0777195 0.102419 0.124217 0.142029 
0.15513 0.163354 0.166688 0.033487 0.0337745 0.0339388 0.0340151 0.0340355 0.0340218 
0.0339873 0.0339381 0.033877 0.033804 0.0337191 0.0336203 0.033507 0.0333762 0.0332273 
0.0330552 0.0328602 0.032634 0.0323781 0.0320791 0.031741 0.0313417 0.0308904 0.0303502 
0.0297399 0.0290008 0.0281757 0.027201 0.0262732 0.0257218 0.0272885 0.0345305 0.0516605 
0.0768898 0.102 0.124147 0.14222 0.155481 0.163787 0.16715 0.0335517 0.0338377 
0.0339997 0.034074 0.0340932 0.0340791 0.0340451 0.033997 0.0339374 0.0338661 0.0337831 
0.0336865 0.0335756 0.0334472 0.0333011 0.0331319 0.0329399 0.0327166 0.0324639 0.0321675 
0.0318324 0.0314349 0.0309858 0.0304454 0.0298353 0.0290917 0.0282612 0.0272688 0.0263075 
0.0256587 0.0269967 0.0338268 0.0506399 0.0760343 0.101568 0.124072 0.14241 0.155832 
0.164216 0.167608 0.0336153 0.0338997 0.0340594 0.0341316 0.0341496 0.0341353 0.0341019 
0.0340548 0.0339967 0.0339272 0.0338463 0.0337518 0.0336434 0.0335177 0.0333744 0.0332081 
0.0330193 0.0327991 0.0325498 0.0322563 0.0319245 0.0315291 0.0310825 0.0305424 0.0299328 
0.0291851 0.0283498 0.0273404 0.0263474 0.0256059 0.0267223 0.0331413 0.0496208 0.0751518 
0.101124 0.123994 0.1426 0.156181 0.164641 0.16806 0.0336777 0.0339606 0.0341179 
0.0341879 0.0342048 0.0341903 0.0341575 0.0341116 0.034055 0.0339873 0.0339084 0.0338163 
0.0337104 0.0335874 0.0334471 0.0332839 0.0330985 0.0328816 0.0326358 0.0323455 0.0320173 
0.0316243 0.0311806 0.030641 0.0300326 0.029281 0.0284414 0.0274158 0.0263929 0.0255633 
0.0264654 0.0324745 0.0486059 0.0742414 0.100666 0.123911 0.14279 0.15653 0.165063 
0.168507 0.0337389 0.0340201 0.034175 0.0342429 0.0342587 0.0342441 0.034212 0.0341673 
0.0341123 0.0340464 0.0339697 0.0338799 0.0337766 0.0336564 0.0335192 0.0333592 0.0331773 
0.0329639 0.032722 0.0324351 0.0321107 0.0317205 0.0312802 0.0307415 0.0301346 0.0293796 
0.0285364 0.027495 0.0264441 0.0255307 0.0262266 0.0318271 0.0475916 0.0733062 0.100196 
0.123825 0.142979 0.156877 0.165481 0.168947 0.033799 0.0340785 0.0342309 0.0342967 
0.0343114 0.0342967 0.0342653 0.0342218 0.0341684 0.0341045 0.0340299 0.0339425 0.0338419 
0.0337246 0.0335906 0.033434 0.0332557 0.033046 0.0328082 0.032525 0.0322048 0.0318177 
0.0313811 0.0308436 0.0302388 0.0294808 0.0286347 0.0275782 0.0265011 0.0255079 0.0260061 
0.0311996 0.0465791 0.0723462 0.0997133 0.123734 0.143168 0.157223 0.165894 0.169381 
0.0338579 0.0341356 0.0342854 0.0343491 0.0343627 0.0343481 0.0343174 0.0342752 0.0342235 
0.0341615 0.0340891 0.0340042 0.0339063 0.033792 0.0336612 0.0335081 0.0333337 0.0331279 
0.0328943 0.0326151 0.0322994 0.0319157 0.0314833 0.0309475 0.0303454 0.0295847 0.0287365 
0.0276654 0.0265641 0.0254946 0.025804 0.0305926 0.0455684 0.0713618 0.0992174 0.12364 
0.143357 0.157567 0.166302 0.169807 0.0339155 0.0341914 0.0343386 0.0344002 0.0344128 
0.0343982 0.0343683 0.0343274 0.0342773 0.0342173 0.0341472 0.0340648 0.0339698 0.0338585 
0.0337311 0.0335816 0.0334112 0.0332094 0.0329803 0.0327054 0.0323945 0.0320146 0.0315869 
0.0310531 0.0304544 0.0296914 0.0288419 0.0277567 0.0266331 0.0254908 0.0256203 0.0300068 
0.0445605 0.0703534 0.0987085 0.123542 0.143546 0.15791 0.166704 0.170225 0.033972 
0.034246 0.0343905 0.0344499 0.0344616 0.034447 0.034418 0.0343784 0.0343301 0.0342721 
0.0342042 0.0341244 0.0340322 0.0339241 0.0338002 0.0336544 0.0334881 0.0332906 0.0330662 
0.0327958 0.03249 0.0321143 0.0316917 0.0311605 0.0305657 0.0298009 0.0289511 0.0278522 
0.0267084 0.0254961 0.0254547 0.0294429 0.0435564 0.0693215 0.0981863 0.123441 0.143736 
0.158251 0.167099 0.170634 0.0340273 0.0342992 0.034441 0.0344983 0.034509 0.0344946 
0.0344664 0.0344282 0.0343816 0.0343256 0.0342601 0.0341829 0.0340936 0.0339887 0.0338684 
0.0337264 0.0335644 0.0333713 0.0331519 0.0328862 0.0325859 0.0322148 0.0317977 0.0312695 
0.0306794 0.0299132 0.0290641 0.027952 0.02679 0.0255105 0.0253071 0.0289015 0.0425574 
0.0682663 0.0976506 0.123337 0.143926 0.15859 0.167488 0.171033 0.0340813 0.0343512 
0.0344901 0.0345453 0.0345551 0.0345408 0.0345136 0.0344768 0.0344319 0.034378 0.0343148 
0.0342402 0.0341539 0.0340523 0.0339356 0.0337976 0.03364 0.0334515 0.0332372 0.0329766 
0.0326821 0.0323159 0.0319049 0.0313802 0.0307955 0.0300285 0.029181 0.0280563 0.026878 
0.0255337 0.0251772 0.0283831 0.041565 0.0671885 0.097101 0.123229 0.144116 0.158926 
0.167869 0.171422 0.0341341 0.0344019 0.0345379 0.0345909 0.0345999 0.0345858 0.0345595 
0.0345241 0.034481 0.0344292 0.0343684 0.0342964 0.0342131 0.0341148 0.0340019 0.0338679 
0.0337148 0.033531 0.0333222 0.0330668 0.0327785 0.0324176 0.0320132 0.0314925 0.030914 
0.0301467 0.029302 0.028165 0.0269727 0.0255655 0.0250649 0.0278881 0.0405809 0.0660886 
0.0965374 0.12312 0.144307 0.159259 0.168241 0.171798 0.0341857 0.0344512 0.0345842 
0.0346351 0.0346433 0.0346295 0.0346042 0.0345702 0.0345289 0.0344791 0.0344207 0.0343514 
0.0342712 0.0341763 0.0340671 0.0339373 0.0337888 0.0336099 0.0334066 0.0331569 0.032875 
0.0325198 0.0321226 0.0316064 0.0310348 0.0302678 0.0294271 0.0282783 0.0270742 0.025606 
0.0249698 0.027417 0.0396068 0.0649675 0.0959593 0.123008 0.1445 0.159589 0.168604 
0.172162 0.0342361 0.0344992 0.0346292 0.034678 0.0346854 0.0346718 0.0346475 0.034615 
0.0345755 0.0345278 0.0344718 0.0344052 0.034328 0.0342365 0.0341312 0.0340056 0.0338618 
0.0336881 0.0334905 0.0332466 0.0329715 0.0326224 0.0322328 0.0317218 0.0311578 0.0303918 
0.0295564 0.0283964 0.0271827 0.025655 0.024892 0.0269698 0.0386445 0.0638262 0.0953667 
0.122895 0.144694 0.159915 0.168956 0.172512 0.0342852 0.0345459 0.0346728 0.0347194 
0.0347261 0.0347129 0.0346896 0.0346586 0.0346208 0.0345752 0.0345216 0.0344578 0.0343836 
0.0342956 0.0341941 0.0340728 0.0339339 0.0337654 0.0335737 0.0333359 0.0330679 0.0327254 
0.0323439 0.0318386 0.0312832 0.0305189 0.0296899 0.0285192 0.0272983 0.0257124 0.0248311 
0.0265466 0.0376959 0.0626661 0.0947591 0.122781 0.144889 0.160237 0.169296 0.172845 
0.0343331 0.0345912 0.034715 0.0347595 0.0347655 0.0347526 0.0347304 0.0347008 0.0346649 
0.0346214 0.0345701 0.034509 0.034438 0.0343534 0.0342559 0.034139 0.034005 0.0338418 
0.0336562 0.0334248 0.0331641 0.0328286 0.0324557 0.0319567 0.0314106 0.0306488 0.0298278 
0.028647 0.0274213 0.0257782 0.0247873 0.0261472 0.0367628 0.0614886 0.0941366 0.122666 
0.145086 0.160554 0.169623 0.173162 0.0343799 0.0346353 0.0347558 0.0347981 0.0348035 
0.034791 0.0347699 0.0347417 0.0347076 0.0346662 0.0346173 0.034559 0.034491 0.03441 
0.0343164 0.0342039 0.0340749 0.0339172 0.0337378 0.033513 0.03326 0.0329319 0.0325681 
0.0320761 0.0315402 0.0307817 0.0299699 0.0287798 0.027552 0.0258524 0.0247604 0.0257714 
0.0358473 0.0602954 0.0934989 0.122552 0.145286 0.160866 0.169935 0.17346 0.0344254 
0.0346779 0.0347951 0.0348354 0.0348402 0.0348281 0.034808 0.0347814 0.034749 0.0347097 
0.0346632 0.0346076 0.0345427 0.0344652 0.0343755 0.0342675 0.0341436 0.0339916 0.0338185 
0.0336005 0.0333554 0.0330351 0.0326809 0.0321966 0.0316718 0.0309175 0.0301164 0.0289177 
0.0276905 0.025935 0.0247507 0.0254188 0.0349511 0.0590887 0.0928461 0.122439 0.145488 
0.161171 0.170232 0.173737 0.0344697 0.0347193 0.0348331 0.0348713 0.0348755 0.0348639 
0.0348449 0.0348197 0.0347891 0.0347519 0.0347078 0.0346548 0.034593 0.034519 0.0344334 
0.0343299 0.034211 0.0340647 0.0338982 0.0336873 0.0334503 0.0331382 0.032794 0.0323182 
0.0318052 0.0310561 0.0302672 0.029061 0.027837 0.0260263 0.0247582 0.0250888 0.0340761 
0.0578705 0.0921785 0.122329 0.145693 0.161468 0.17051 0.173992 0.0345128 0.0347593 
0.0348697 0.0349058 0.0349095 0.0348984 0.0348805 0.0348567 0.0348279 0.0347927 0.0347509 
0.0347007 0.034642 0.0345715 0.0344898 0.0343909 0.0342771 0.0341366 0.0339767 0.033773 
0.0335444 0.033241 0.0329073 0.0324406 0.0319402 0.0311974 0.0304223 0.0292096 0.0279919 
0.0261263 0.0247834 0.0247807 0.0332243 0.0566433 0.0914963 0.122222 0.1459 0.161758 
0.170768 0.174222 0.0345547 0.034798 0.0349048 0.0349389 0.0349421 0.0349315 0.0349147 
0.0348925 0.0348654 0.0348322 0.0347927 0.0347452 0.0346895 0.0346225 0.0345448 0.0344504 
0.0343418 0.0342072 0.0340539 0.0338578 0.0336377 0.0333434 0.0330206 0.0325637 0.0320768 
0.0313415 0.0305816 0.0293638 0.0281553 0.0262354 0.0248265 0.0244939 0.0323975 0.0554095 
0.0908004 0.122121 0.146111 0.162038 0.171005 0.174426 0.0345954 0.0348354 0.0349386 
0.0349706 0.0349734 0.0349634 0.0349477 0.0349269 0.0349015 0.0348703 0.0348332 0.0347883 
0.0347356 0.0346721 0.0345983 0.0345085 0.034405 0.0342764 0.0341298 0.0339413 0.03373 
0.0334451 0.0331336 0.0326873 0.0322148 0.0314881 0.0307451 0.0295236 0.0283275 0.0263539 
0.0248881 0.0242277 0.0315974 0.0541711 0.0900922 0.122026 0.146326 0.162307 0.171218 
0.174599 0.034635 0.0348714 0.034971 0.035001 0.0350034 0.034994 0.0349794 0.03496 
0.0349363 0.0349071 0.0348722 0.0348299 0.0347802 0.0347202 0.0346503 0.0345651 0.0344667 
0.0343441 0.0342042 0.0340236 0.0338211 0.0335461 0.0332462 0.0328114 0.0323538 0.0316372 
0.0309125 0.0296891 0.0285086 0.0264823 0.0249687 0.0239818 0.0308259 0.0529281 0.0893743 
0.121941 0.146543 0.162565 0.171404 0.174741 0.0346735 0.0349061 0.0350019 0.03503 
0.0350322 0.0350233 0.0350098 0.0349918 0.0349698 0.0349425 0.0349098 0.0348701 0.0348233 
0.0347667 0.0347007 0.03462 0.0345268 0.0344102 0.0342771 0.0341044 0.0339109 0.0336462 
0.0333582 0.0329356 0.0324937 0.0317886 0.0310837 0.0298604 0.0286989 0.0266212 0.0250692 
0.0237565 0.0300852 0.0516881 0.0886452 0.121867 0.146764 0.162808 0.171561 0.174847 
0.0347108 0.0349395 0.0350315 0.0350576 0.0350596 0.0350513 0.0350389 0.0350223 0.0350019 
0.0349765 0.034946 0.0349089 0.034865 0.0348118 0.0347495 0.0346734 0.0345852 0.0344747 
0.0343483 0.0341837 0.0339993 0.0337452 0.0334694 0.0330598 0.0326342 0.0319421 0.0312585 
0.0300377 0.0288983 0.0267711 0.0251901 0.0235529 0.0293775 0.0504427 0.0879141 0.121808 
0.146988 0.163037 0.171686 0.174914 0.034747 0.0349715 0.0350598 0.035084 0.0350857 
0.035078 0.0350668 0.0350515 0.0350328 0.0350092 0.0349809 0.0349462 0.0349051 0.0348552 
0.0347967 0.034725 0.0346418 0.0345374 0.0344178 0.0342614 0.0340861 0.0338429 0.0335795 
0.0331837 0.032775 0.0320975 0.0314366 0.0302209 0.029107 0.0269329 0.0253324 0.0233722 
0.0287053 0.0491923 0.0871845 0.121766 0.147213 0.163249 0.171776 0.17494 0.0347822 
0.0350023 0.0350866 0.035109 0.0351106 0.0351036 0.0350934 0.0350795 0.0350623 0.0350406 
0.0350143 0.034982 0.0349437 0.034897 0.0348422 0.034775 0.0346967 0.0345983 0.0344854 
0.0343373 0.0341711 0.0339391 0.0336883 0.033307 0.0329158 0.0322546 0.0316177 0.03041 
0.029325 0.0271071 0.0254968 0.0232153 0.0280713 0.0479353 0.0864613 0.121746 0.147441 
0.163441 0.171828 0.174921 0.0348162 0.0350317 0.0351121 0.0351327 0.0351342 0.0351279 
0.0351188 0.0351062 0.0350905 0.0350705 0.0350463 0.0350164 0.0349807 0.0349373 0.0348861 
0.0348232 0.0347498 0.0346574 0.0345511 0.0344113 0.0342542 0.0340337 0.0337955 0.0334296 
0.0330562 0.032413 0.0318013 0.0306049 0.0295521 0.0272946 0.0256839 0.0230832 0.0274786 
0.0466704 0.0857495 0.121749 0.14767 0.163614 0.171839 0.174851 0.0348492 0.0350598 
0.0351363 0.0351551 0.0351566 0.0351509 0.0351429 0.0351316 0.0351174 0.0350992 0.0350769 
0.0350493 0.0350162 0.0349759 0.0349282 0.0348696 0.034801 0.0347145 0.0346147 0.0344833 
0.0343352 0.0341265 0.033901 0.0335512 0.0331959 0.0325725 0.0319871 0.0308056 0.0297881 
0.0274961 0.0258946 0.0229772 0.0269309 0.0453969 0.0850546 0.121781 0.147899 0.163763 
0.171805 0.174728 0.0348812 0.0350866 0.0351591 0.0351763 0.0351778 0.0351728 0.0351659 
0.0351558 0.035143 0.0351265 0.0351061 0.0350807 0.0350502 0.0350129 0.0349686 0.0349142 
0.0348502 0.0347696 0.0346762 0.0345531 0.034414 0.0342172 0.0340044 0.0336714 0.0333345 
0.0327327 0.0321745 0.0310118 0.0300327 0.0277122 0.0261296 0.0228986 0.0264325 0.0441141 
0.0843815 0.121843 0.148132 0.163886 0.171723 0.174546 0.0349121 0.035112 0.0351806 
0.0351962 0.0351979 0.0351936 0.0351876 0.0351788 0.0351674 0.0351525 0.0351339 0.0351107 
0.0350826 0.0350483 0.0350073 0.034957 0.0348975 0.0348227 0.0347355 0.0346207 0.0344904 
0.0343057 0.0341055 0.0337899 0.0334716 0.0328932 0.032363 0.0312233 0.0302854 0.0279437 
0.0263894 0.022849 0.0259886 0.0428214 0.0837343 0.121944 0.148362 0.163981 0.171589 
0.1743 0.0349421 0.0351362 0.0352008 0.0352149 0.0352167 0.0352131 0.0352082 0.0352005 
0.0351905 0.0351771 0.0351603 0.0351392 0.0351135 0.035082 0.0350442 0.0349979 0.0349428 
0.0348736 0.0347926 0.034686 0.0345644 0.0343918 0.0342041 0.0339065 0.0336067 0.0330535 
0.0325519 0.0314398 0.0305456 0.0281911 0.0266746 0.0228304 0.0256055 0.0415188 0.0831217 
0.122084 0.14859 0.164048 0.171398 0.173984 0.0349711 0.035159 0.0352197 0.0352324 
0.0352344 0.0352316 0.0352277 0.0352211 0.0352124 0.0352005 0.0351854 0.0351663 0.0351429 
0.0351141 0.0350794 0.0350369 0.034986 0.0349224 0.0348473 0.0347488 0.0346357 0.0344753 
0.0342999 0.0340208 0.0337394 0.0332133 0.0327405 0.0316607 0.0308124 0.0284551 0.0269856 
0.0228454 0.0252908 0.0402069 0.082548 0.122266 0.148819 0.164082 0.171146 0.173593 
0.0349991 0.0351805 0.0352374 0.0352488 0.0352511 0.0352489 0.035246 0.0352405 0.0352331 
0.0352226 0.0352091 0.0351919 0.0351707 0.0351446 0.0351128 0.035074 0.0350272 0.0349689 
0.0348996 0.0348091 0.0347042 0.034556 0.0343927 0.0341325 0.0338693 0.0333719 0.0329281 
0.0318855 0.031085 0.0287359 0.0273226 0.0228966 0.0250527 0.0388865 0.0820126 0.122499 
0.14905 0.164081 0.170827 0.173121 0.0350262 0.0352007 0.0352537 0.0352639 0.0352666 
0.0352652 0.0352632 0.0352588 0.0352525 0.0352434 0.0352315 0.0352162 0.0351969 0.0351734 
0.0351444 0.0351092 0.0350664 0.0350133 0.0349495 0.0348668 0.0347698 0.0346338 0.0344822 
0.0342413 0.0339959 0.0335289 0.0331138 0.0321136 0.0313621 0.0290339 0.0276852 0.0229872 
0.0248998 0.0375582 0.0815216 0.122788 0.149282 0.16404 0.170437 0.172562 0.0350524 
0.0352196 0.0352689 0.035278 0.035281 0.0352804 0.0352793 0.0352759 0.0352708 0.035263 
0.0352525 0.0352389 0.0352217 0.0352005 0.0351743 0.0351425 0.0351034 0.0350553 0.0349969 
0.0349217 0.0348325 0.0347084 0.0345681 0.0343467 0.0341188 0.0336836 0.0332968 0.0323442 
0.0316425 0.029349 0.0280729 0.023121 0.0248405 0.0362233 0.081081 0.123141 0.149516 
0.163956 0.169969 0.171911 0.0350777 0.0352371 0.0352828 0.035291 0.0352944 0.0352945 
0.0352944 0.035292 0.0352879 0.0352814 0.0352723 0.0352603 0.035245 0.0352261 0.0352024 
0.0351738 0.0351383 0.0350951 0.0350417 0.0349739 0.034892 0.0347797 0.0346504 0.0344486 
0.0342375 0.0338354 0.0334762 0.0325763 0.0319244 0.0296812 0.0284844 0.023302 0.0248831 
0.0348831 0.0806984 0.123564 0.149752 0.163822 0.169417 0.171161 0.0351021 0.0352533 
0.0352956 0.0353029 0.0353069 0.0353077 0.0353084 0.0353069 0.0353039 0.0352985 0.0352907 
0.0352804 0.0352667 0.03525 0.0352288 0.0352033 0.0351712 0.0351325 0.0350839 0.0350233 
0.0349484 0.0348476 0.0347287 0.0345464 0.0343515 0.0339836 0.0336511 0.0328089 0.0322062 
0.03003 0.0289179 0.0235351 0.025035 0.0335403 0.0803838 0.124067 0.149986 0.163633 
0.168777 0.170307 0.0351255 0.0352682 0.0353072 0.0353138 0.0353183 0.0353199 0.0353214 
0.0353208 0.0353188 0.0353145 0.0353079 0.035299 0.0352871 0.0352724 0.0352534 0.0352308 
0.0352019 0.0351676 0.0351236 0.0350697 0.0350015 0.0349119 0.034803 0.03464 0.0344605 
0.0341276 0.0338206 0.0330409 0.0324859 0.0303944 0.0293709 0.0238255 0.0253024 0.0321983 
0.0801493 0.124655 0.150219 0.163383 0.168042 0.169344 0.0351482 0.0352818 0.0353176 
0.0353237 0.0353288 0.0353311 0.0353334 0.0353337 0.0353325 0.0353293 0.0353239 0.0353164 
0.0353059 0.0352931 0.0352763 0.0352565 0.0352305 0.0352003 0.0351606 0.0351132 0.0350513 
0.0349724 0.0348729 0.034729 0.034564 0.0342666 0.0339836 0.0332708 0.0327613 0.0307731 
0.02984 0.0241789 0.025689 0.0308621 0.0800096 0.125337 0.150446 0.163064 0.167206 
0.168266 0.0351699 0.035294 0.035327 0.0353327 0.0353384 0.0353414 0.0353445 0.0353456 
0.0353452 0.035343 0.0353386 0.0353324 0.0353234 0.0353124 0.0352975 0.0352802 0.0352571 
0.0352307 0.035195 0.0351537 0.0350977 0.0350291 0.0349385 0.0348131 0.0346618 0.0344 
0.0341394 0.0334971 0.0330302 0.0311645 0.0303208 0.0246012 0.0261952 0.0295389 0.0799829 
0.126119 0.150664 0.162669 0.166263 0.167069 0.0351907 0.035305 0.0353352 0.0353408 
0.0353471 0.0353509 0.0353546 0.0353565 0.0353569 0.0353556 0.0353522 0.0353471 0.0353394 
0.03533 0.035317 0.0353021 0.0352816 0.0352587 0.0352268 0.0351912 0.0351407 0.0350818 
0.0349995 0.0348919 0.0347534 0.0345269 0.034287 0.0337184 0.0332903 0.0315661 0.0308081 
0.0250986 0.0268165 0.0282376 0.0800913 0.127007 0.150867 0.162187 0.165208 0.16575 
0.0352106 0.0353146 0.0353424 0.035348 0.035355 0.0353595 0.0353639 0.0353664 0.0353676 
0.035367 0.0353646 0.0353606 0.0353541 0.0353462 0.0353348 0.0353221 0.035304 0.0352844 
0.035256 0.0352257 0.0351803 0.0351305 0.0350559 0.0349653 0.0348386 0.0346467 0.0344256 
0.0339326 0.0335391 0.0319748 0.0312955 0.0256767 0.0275418 0.0269701 0.0803624 0.128004 
0.15105 0.161609 0.164035 0.164305 0.0352294 0.0353229 0.0353486 0.0353544 0.0353619 
0.0353672 0.0353722 0.0353754 0.0353772 0.0353774 0.0353758 0.0353727 0.0353674 0.0353608 
0.035351 0.0353402 0.0353243 0.0353078 0.0352825 0.035257 0.0352164 0.035175 0.0351075 
0.0350328 0.0349171 0.0347586 0.0345545 0.0341379 0.0337742 0.0323867 0.0317754 0.02634 
0.0283522 0.0257504 0.08083 0.129113 0.151203 0.160924 0.162739 0.162733 0.0352474 
0.0353301 0.035354 0.0353601 0.0353683 0.0353743 0.0353798 0.0353836 0.035386 0.0353869 
0.035386 0.0353838 0.0353795 0.0353742 0.0353657 0.0353567 0.0353428 0.035329 0.0353066 
0.0352855 0.0352492 0.0352154 0.0351546 0.0350946 0.0349889 0.034862 0.0346732 0.0343324 
0.0339937 0.032797 0.03224 0.0270914 0.0292196 0.0245951 0.0815368 0.130331 0.151316 
0.160119 0.161315 0.161033 0.0352648 0.0353368 0.0353591 0.0353658 0.0353746 0.0353812 
0.0353872 0.0353916 0.0353945 0.035396 0.0353958 0.0353944 0.0353909 0.0353867 0.0353795 
0.0353721 0.03536 0.0353485 0.0353288 0.0353116 0.0352792 0.0352523 0.0351975 0.0351508 
0.0350543 0.0349568 0.0347818 0.0345144 0.0341962 0.0332006 0.0326812 0.0279311 0.0301062 
0.023523 0.082536 0.131651 0.151376 0.159181 0.159761 0.159206 0.0352779 0.0353392 
0.0353603 0.0353677 0.035377 0.0353843 0.0353908 0.0353956 0.035399 0.035401 0.0354013 
0.0354007 0.035398 0.0353947 0.0353886 0.0353826 0.0353721 0.0353627 0.0353454 0.0353315 
0.0353028 0.0352818 0.0352325 0.0351976 0.0351097 0.0350386 0.0348762 0.0346781 0.0343764 
0.0335867 0.0330868 0.0288504 0.0309624 0.0225568 0.0838954 0.133058 0.151365 0.158097 
0.158072 0.157255 0.0352857 0.0353364 0.0353565 0.0353648 0.0353746 0.0353825 0.0353894 
0.0353946 0.0353984 0.0354009 0.0354018 0.0354017 0.0353997 0.0353972 0.0353921 0.0353872 
0.0353781 0.0353705 0.0353553 0.0353443 0.0353189 0.0353029 0.0352587 0.0352338 0.0351537 
0.0351056 0.0349548 0.0348197 0.0345315 0.0339453 0.0334464 0.0298312 0.031726 0.0217197 
0.0857006 0.134532 0.151263 0.156852 0.156249 0.155185 0.0353397 0.0353801 0.0353995 
0.0354088 0.0354191 0.0354276 0.0354348 0.0354405 0.0354446 0.0354475 0.0354488 0.0354492 
0.0354478 0.035446 0.0354418 0.0354378 0.03543 0.0354238 0.0354104 0.0354017 0.0353791 
0.0353672 0.0353276 0.0353107 0.035238 0.0352089 0.0350691 0.0349886 0.034712 0.0343186 
0.0338037 0.0309014 0.0323719 0.021065 0.0880584 0.136038 0.151043 0.155434 0.154293 
0.153004 0.0353851 0.0354183 0.0354371 0.0354474 0.0354581 0.0354669 0.0354744 0.0354803 
0.0354847 0.0354879 0.0354896 0.0354904 0.0354895 0.0354882 0.0354847 0.0354816 0.0354748 
0.0354698 0.0354582 0.0354512 0.0354315 0.0354225 0.0353876 0.0353766 0.0353116 0.035297 
0.0351694 0.0351327 0.0348709 0.0346487 0.0341166 0.031989 0.0328459 0.0207643 0.0911027 
0.137527 0.150671 0.153823 0.1522 0.150716 0.034802 0.0348302 0.0348482 0.0348592 
0.0348698 0.0348788 0.0348862 0.0348923 0.0348968 0.0349001 0.034902 0.0349031 0.0349026 
0.0349017 0.0348989 0.0348963 0.0348906 0.0348865 0.0348765 0.0348709 0.0348538 0.034847 
0.0348167 0.0348098 0.0347529 0.034748 0.0346344 0.034629 0.0343879 0.0343022 0.0337677 
0.0324001 0.0325765 0.0205704 0.0950121 0.138937 0.150093 0.151995 0.149962 0.148317 
0.0350332 0.0350417 0.03506 0.0350726 0.0350842 0.0350941 0.0351022 0.0351088 0.0351137 
0.0351175 0.0351197 0.035121 0.0351209 0.0351202 0.0351177 0.0351154 0.0351101 0.0351061 
0.035097 0.0350915 0.0350759 0.0350693 0.0350417 0.0350355 0.0349837 0.0349818 0.0348774 
0.0348878 0.0346589 0.0346669 0.0341034 0.0334122 0.0325081 0.0209196 0.100022 0.140215 
0.149279 0.149966 0.147609 0.145844 0.0422795 0.0422879 0.042309 0.0423254 0.0423394 
0.0423517 0.0423615 0.0423698 0.0423758 0.0423805 0.0423834 0.0423853 0.0423854 0.0423849 
0.0423824 0.0423798 0.0423744 0.0423698 0.0423605 0.0423537 0.042338 0.0423292 0.042302 
0.042292 0.042242 0.0422339 0.0421341 0.042138 0.0419157 0.0419484 0.0413497 0.0410722 
0.0388316 0.0282609 0.106236 0.141279 0.148297 0.147888 0.14531 0.143469 0.0337961 
0.0338118 0.0338276 0.0338405 0.0338513 0.0338608 0.0338683 0.0338747 0.0338793 0.0338829 
0.0338852 0.0338866 0.0338868 0.0338863 0.0338845 0.0338825 0.0338786 0.0338749 0.0338681 
0.0338627 0.0338514 0.0338442 0.0338247 0.0338159 0.0337806 0.0337721 0.0337022 0.0337008 
0.0335452 0.0335684 0.0331424 0.0330585 0.0312596 0.0255204 0.112417 0.141706 0.147289 
0.146064 0.143432 0.141553 0.0348534 0.0348717 0.0348876 0.0349009 0.0349119 0.0349217 
0.0349294 0.0349359 0.0349407 0.0349444 0.0349467 0.0349482 0.0349484 0.034948 0.0349463 
0.0349442 0.0349403 0.0349366 0.0349298 0.0349243 0.0349131 0.0349057 0.0348865 0.0348773 
0.0348426 0.0348333 0.0347648 0.0347621 0.0346102 0.0346343 0.0342203 0.0342083 0.0324832 
0.0285595 0.116198 0.141771 0.146644 0.144993 0.14237 0.140476 0.0350775 0.0350964 
0.0351121 0.0351256 0.0351367 0.0351465 0.0351543 0.0351609 0.0351657 0.0351694 0.0351718 
0.0351733 0.0351736 0.0351732 0.0351715 0.0351695 0.0351657 0.0351621 0.0351555 0.03515 
0.0351391 0.0351317 0.0351131 0.0351038 0.0350704 0.0350607 0.034995 0.0349914 0.0348467 
0.0348718 0.0344845 0.0345548 0.0330676 0.031362 0.120077 0.141661 0.1459 0.143873 
0.141288 0.139388 0.0349441 0.0349648 0.0349801 0.0349937 0.0350048 0.0350147 0.0350224 
0.035029 0.0350338 0.0350376 0.03504 0.0350416 0.035042 0.0350417 0.0350402 0.0350384 
0.0350349 0.0350314 0.0350253 0.0350202 0.03501 0.035003 0.0349856 0.0349768 0.0349456 
0.0349364 0.0348755 0.0348726 0.0347392 0.0347691 0.0344219 0.0345965 0.033454 0.03432 
0.12399 0.141382 0.145056 0.142709 0.140184 0.138286 0.0348503 0.0348741 0.0348892 
0.0349031 0.0349142 0.0349242 0.034932 0.0349387 0.0349437 0.0349477 0.0349503 0.0349522 
0.0349529 0.034953 0.034952 0.0349507 0.0349479 0.0349452 0.0349401 0.034936 0.0349272 
0.0349216 0.0349066 0.0348998 0.0348726 0.0348665 0.0348131 0.0348155 0.0346987 0.0347434 
0.0344502 0.0347592 0.0340364 0.0377773 0.127874 0.140932 0.144119 0.141511 0.139068 
0.137178 0.0347199 0.0347482 0.0347634 0.0347777 0.0347891 0.0347995 0.0348076 0.0348148 
0.0348203 0.0348249 0.0348283 0.0348311 0.0348328 0.0348342 0.0348347 0.034835 0.0348342 
0.0348338 0.0348314 0.0348304 0.0348257 0.0348245 0.0348153 0.034815 0.0347971 0.0348011 
0.0347638 0.0347841 0.0346998 0.034785 0.0345811 0.0350853 0.0348972 0.0418769 0.131637 
0.140313 0.143097 0.140289 0.137947 0.136071 0.0341278 0.034162 0.0341776 0.0341926 
0.0342045 0.0342157 0.0342248 0.0342332 0.0342402 0.0342467 0.0342524 0.0342578 0.0342627 
0.0342677 0.0342724 0.0342776 0.0342826 0.0342887 0.0342942 0.0343022 0.0343083 0.0343198 
0.0343265 0.0343448 0.0343513 0.0343846 0.034388 0.0344589 0.0344518 0.034643 0.0346235 
0.0354759 0.0360572 0.046736 0.135041 0.139501 0.141972 0.139029 0.136806 0.13495 
0.0334769 0.0335183 0.0335359 0.0335531 0.0335671 0.0335809 0.0335933 0.0336058 0.0336179 
0.0336304 0.0336433 0.0336571 0.0336719 0.0336884 0.0337063 0.0337269 0.0337496 0.0337764 
0.0338059 0.0338421 0.0338818 0.0339329 0.0339878 0.0340643 0.0341439 0.0342679 0.0343905 
0.0346173 0.0348273 0.0353329 0.0357894 0.0375013 0.0395403 0.0552296 0.137531 0.138421 
0.140648 0.137652 0.13557 0.133743 0.0403941 0.0404632 0.0404922 0.0405211 0.0405463 
0.0405733 0.0406011 0.0406321 0.0406662 0.0407048 0.0407481 0.0407974 0.0408532 0.040917 
0.0409893 0.0410726 0.0411674 0.0412778 0.0414043 0.041554 0.0417267 0.0419361 0.0421799 
0.0424863 0.0428461 0.043324 0.0438904 0.044711 0.0456934 0.0473494 0.049371 0.0539714 
0.0600726 0.088348 0.138952 0.136632 0.138575 0.135648 0.133771 0.132002 0.0336134 
0.0337467 0.0337972 0.0338456 0.0338882 0.0339356 0.0339875 0.0340475 0.0341166 0.0341967 
0.034289 0.0343954 0.0345174 0.0346572 0.034817 0.0350002 0.03521 0.0354517 0.0357299 
0.0360539 0.0364298 0.0368748 0.0373974 0.0380307 0.0387863 0.0397354 0.0408896 0.0424287 
0.0443424 0.0471928 0.0508365 0.0576695 0.0667865 0.0955233 0.13567 0.133218 0.135035 
0.132495 0.13094 0.129289 0.0344276 0.0346259 0.0347031 0.0347732 0.0348318 0.0348943 
0.0349605 0.0350355 0.0351208 0.0352188 0.0353315 0.035461 0.0356095 0.0357796 0.0359741 
0.036197 0.0364523 0.0367463 0.0370847 0.0374779 0.0379345 0.0384729 0.0391057 0.0398685 
0.0407797 0.0419149 0.0432992 0.0451206 0.0473989 0.0507109 0.054987 0.062582 0.0726805 
0.0987492 0.130957 0.129353 0.131354 0.129334 0.128124 0.126599 0.0345598 0.0348033 
0.0349078 0.0349999 0.0350739 0.0351499 0.0352277 0.0353138 0.0354102 0.0355202 0.0356461 
0.0357903 0.0359556 0.036145 0.0363618 0.0366104 0.0368954 0.0372236 0.0376015 0.0380407 
0.0385507 0.0391515 0.0398579 0.0407073 0.0417224 0.042982 0.0445194 0.0465271 0.0490431 
0.0526422 0.0572953 0.0652056 0.0755752 0.0985054 0.125537 0.125199 0.127569 0.126135 
0.125279 0.123885 0.0345587 0.0348413 0.0349727 0.0350865 0.0351758 0.0352642 0.035352 
0.0354471 0.0355517 0.0356699 0.0358043 0.0359578 0.0361336 0.0363349 0.0365655 0.0368301 
0.0371335 0.0374832 0.0378862 0.0383545 0.0388987 0.0395394 0.0402931 0.0411982 0.0422804 
0.0436197 0.0452557 0.0473796 0.0500446 0.0538023 0.0586572 0.0665695 0.0768209 0.0965849 
0.119975 0.12096 0.123757 0.122919 0.122408 0.121144 0.0346218 0.0349344 0.0350914 
0.0352261 0.0353303 0.0354307 0.0355279 0.0356308 0.0357424 0.035867 0.0360079 0.0361683 
0.0363516 0.0365615 0.036802 0.037078 0.0373948 0.03776 0.0381811 0.0386705 0.0392395 
0.0399091 0.040697 0.0416421 0.0427726 0.0441677 0.0458726 0.0480732 0.0508343 0.0546716 
0.0596171 0.0673477 0.0772821 0.0942248 0.114673 0.116807 0.119999 0.119725 0.119532 
0.118392 0.0346921 0.0350278 0.0352088 0.0353633 0.0354822 0.0355945 0.0357009 0.0358115 
0.0359297 0.0360602 0.0362069 0.0363734 0.0365633 0.0367805 0.0370294 0.0373151 0.0376432 
0.0380216 0.0384582 0.0389654 0.0395553 0.0402491 0.0410655 0.0420435 0.043213 0.0446524 
0.0464104 0.0486656 0.0514917 0.0553601 0.0603264 0.067777 0.0772944 0.0918728 0.109804 
0.112838 0.116349 0.116576 0.116669 0.115644 0.0347729 0.0351262 0.0353295 0.0355027 
0.0356361 0.03576 0.0358757 0.0359939 0.0361185 0.036255 0.0364073 0.0365795 0.0367756 
0.0369997 0.0372563 0.037551 0.0378896 0.03828 0.0387306 0.039254 0.0398627 0.0405781 
0.0414198 0.0424263 0.0436293 0.0451051 0.0469058 0.0492 0.0520686 0.0559335 0.0608708 
0.0679897 0.0770367 0.0896753 0.105416 0.109099 0.112838 0.113494 0.113832 0.112912 
0.034864 0.0352308 0.0354546 0.0356453 0.0357928 0.0359282 0.0360531 0.036179 0.0363102 
0.0364526 0.0366106 0.0367885 0.0369906 0.0372215 0.0374858 0.0377892 0.0381377 0.0385397 
0.0390035 0.0395422 0.0401686 0.040904 0.0417688 0.042801 0.0440336 0.0455403 0.0473755 
0.0496968 0.05259 0.0564256 0.0612967 0.0680614 0.0766114 0.0876682 0.101495 0.105607 
0.109482 0.110489 0.111033 0.110206 0.0349643 0.0353416 0.0355841 0.0357909 0.0359523 
0.0360989 0.0362331 0.0363667 0.0365046 0.0366529 0.0368167 0.0370004 0.0372087 0.0374462 
0.0377181 0.03803 0.0383883 0.0388015 0.0392782 0.0398315 0.0404746 0.0412289 0.0421151 
0.0431707 0.0444295 0.0459624 0.047825 0.0501633 0.0530656 0.0568517 0.0616278 0.0680333 
0.0760763 0.0858386 0.0979961 0.102358 0.106287 0.107572 0.108281 0.107535 0.0350731 
0.0354587 0.0357181 0.0359399 0.0361146 0.0362723 0.0364156 0.036557 0.0367017 0.0368562 
0.0370258 0.0372154 0.0374299 0.0376741 0.0379535 0.0382738 0.0386418 0.0390659 0.0395551 
0.0401225 0.0407816 0.0415535 0.0424596 0.0435364 0.0448182 0.0463726 0.0482562 0.0506019 
0.0534996 0.0572198 0.0618779 0.0679292 0.0754666 0.0841596 0.094867 0.0993367 0.103252 
0.104749 0.105586 0.10491 0.03519 0.0355822 0.035857 0.0360925 0.03628 0.0364483 
0.0366009 0.03675 0.0369015 0.0370623 0.0372378 0.0374334 0.0376541 0.0379051 0.038192 
0.0385207 0.0388982 0.0393329 0.0398341 0.040415 0.0410892 0.0418777 0.0428021 0.0438978 
0.0451994 0.0467709 0.0486688 0.0510133 0.0538938 0.0575348 0.0620566 0.0677643 0.0748055 
0.082604 0.0920559 0.0965268 0.100374 0.102022 0.102953 0.102337 0.0353145 0.0357121 
0.0360007 0.0362488 0.0364486 0.0366273 0.0367889 0.0369458 0.0371042 0.0372712 0.0374528 
0.0376544 0.0378814 0.0381392 0.0384334 0.0387704 0.0391571 0.0396022 0.0401151 0.0407088 
0.0413973 0.0422011 0.043142 0.0442543 0.0455724 0.0471565 0.0490623 0.0513973 0.0542489 
0.0578 0.0621713 0.0675487 0.0741093 0.0811495 0.0895164 0.0939097 0.0976471 0.0993937 
0.100389 0.0998232 0.0354462 0.0358483 0.0361494 0.0364091 0.0366205 0.0368092 0.0369797 
0.0371443 0.0373096 0.037483 0.0376707 0.0378783 0.0381116 0.0383762 0.0386777 0.0390229 
0.0394186 0.0398736 0.0403976 0.0410035 0.0417052 0.0425231 0.0434787 0.044605 0.0459363 
0.0475284 0.0494358 0.0517536 0.0545658 0.0580183 0.0622282 0.0672901 0.0733902 0.0797786 
0.0872084 0.0914678 0.0950647 0.0968657 0.0978992 0.097374 0.0355849 0.0359909 0.0363032 
0.0365735 0.0367959 0.0369941 0.0371733 0.0373455 0.0375177 0.0376975 0.0378913 0.038105 
0.0383447 0.0386158 0.0389247 0.0392777 0.0396822 0.0401468 0.0406814 0.0412986 0.0420125 
0.042843 0.0438114 0.0449493 0.0462902 0.0478858 0.0497886 0.052082 0.0548453 0.0581922 
0.0622332 0.0669947 0.0726572 0.0784783 0.0850979 0.0891847 0.0926193 0.0944376 0.095486 
0.0949941 0.0357302 0.0361396 0.0364621 0.036742 0.0369748 0.0371822 0.0373699 0.0375495 
0.0377286 0.0379147 0.0381146 0.0383344 0.0385803 0.0388581 0.039174 0.0395348 0.0399476 
0.0404214 0.0409659 0.0415936 0.0423186 0.0431602 0.0441393 0.0452861 0.046633 0.0482277 
0.0501201 0.0523824 0.0550884 0.0583243 0.0621916 0.0666675 0.0719173 0.0772388 0.0831567 
0.0870457 0.0903036 0.0921087 0.0931526 0.092687 0.0358821 0.0362944 0.036626 0.0369148 
0.0371573 0.0373735 0.0375693 0.0377563 0.0379421 0.0381345 0.0383405 0.0385664 0.0388185 
0.0391027 0.0394256 0.0397937 0.0402147 0.0406971 0.0412507 0.041888 0.0426229 0.0434739 
0.0444617 0.0456146 0.0469641 0.0485534 0.0504297 0.0526548 0.0552962 0.0584172 0.0621082 
0.0663131 0.0711756 0.0760531 0.0813612 0.0850373 0.0881102 0.0898775 0.0909008 0.0904556 
0.0360402 0.0364551 0.0367951 0.037092 0.0373436 0.037568 0.0377718 0.0379658 0.0381583 
0.0383569 0.0385689 0.0388007 0.0390589 0.0393495 0.0396791 0.0400543 0.0404829 0.0409733 
0.0415354 0.0421813 0.0429248 0.0437835 0.0447778 0.0459342 0.0472826 0.0488623 0.0507171 
0.0528994 0.0554702 0.0584734 0.0619876 0.0659355 0.0704363 0.0749154 0.0796917 0.0831479 
0.0860321 0.0877421 0.0887318 0.0883019 0.0362043 0.0366218 0.0369692 0.0372734 0.0375336 
0.0377658 0.0379771 0.0381781 0.0383771 0.0385818 0.0387997 0.0390374 0.0393015 0.0395982 
0.0399342 0.0403163 0.0407519 0.0412498 0.0418195 0.042473 0.0432236 0.0440884 0.0450869 
0.0462439 0.0475878 0.0491538 0.0509822 0.0531168 0.0556117 0.0584953 0.061834 0.0655382 
0.0697024 0.0738217 0.0781322 0.081367 0.0840623 0.0857004 0.0866461 0.0862271 0.0363744 
0.0367941 0.0371482 0.0374592 0.0377273 0.0379669 0.0381855 0.0383931 0.0385984 0.038809 
0.0390327 0.0392761 0.039546 0.0398486 0.0401907 0.0405792 0.0410214 0.041526 0.0421025 
0.0427624 0.0435187 0.0443878 0.0453883 0.0465432 0.0478791 0.0494274 0.0512248 0.0533075 
0.0557223 0.0584855 0.0616513 0.0651245 0.0689763 0.0727686 0.076669 0.0796851 0.0821943 
0.0837497 0.0846435 0.0842318 0.0365502 0.036972 0.0373322 0.0376494 0.0379249 0.0381713 
0.0383968 0.0386107 0.0388221 0.0390385 0.0392679 0.0395167 0.0397922 0.0401005 0.0404484 
0.0408427 0.041291 0.0418016 0.0423839 0.043049 0.0438096 0.0446812 0.0456813 0.0468314 
0.048156 0.049683 0.0514452 0.0534721 0.0558037 0.0584464 0.0614428 0.0646974 0.0682595 
0.0717534 0.075291 0.0780941 0.080422 0.0818873 0.0827234 0.0823161 0.0367315 0.0371553 
0.0375211 0.0378439 0.0381261 0.038379 0.0386109 0.038831 0.0390482 0.0392702 0.0395049 
0.0397591 0.0400399 0.0403535 0.0407068 0.0411066 0.0415603 0.0420761 0.0426632 0.0433324 
0.0440957 0.0449678 0.0459653 0.0471079 0.0484181 0.0499203 0.0516436 0.0536115 0.0558574 
0.0583802 0.0612119 0.0642594 0.0675534 0.070774 0.0739889 0.0765867 0.0787397 0.0801103 
0.0808847 0.0804793 0.0369183 0.0373439 0.0377147 0.0380426 0.0383311 0.0385899 0.038828 
0.0390537 0.0392766 0.0395038 0.0397438 0.040003 0.0402888 0.0406074 0.0409657 0.0413704 
0.0418289 0.0423491 0.04294 0.0436118 0.0443763 0.0452471 0.0462398 0.0473723 0.048665 
0.0501393 0.0518204 0.0537266 0.0558852 0.0582894 0.0609614 0.0638131 0.066859 0.0698283 
0.072755 0.0751566 0.077142 0.0784156 0.0791259 0.0787207 0.0371102 0.0375375 0.0379129 
0.0382455 0.0385397 0.038804 0.0390478 0.039279 0.0395071 0.0397394 0.0399842 0.0402482 
0.0405387 0.0408619 0.0412247 0.0416338 0.0420963 0.04262 0.0432136 0.0438869 0.044651 
0.0455187 0.0465043 0.0476241 0.0488966 0.0503399 0.0519759 0.0538184 0.0558886 0.058176 
0.0606941 0.0633605 0.0661771 0.0689149 0.0715828 0.073798 0.075624 0.0768001 0.0774454 
0.0770388 0.0373071 0.0377361 0.0381156 0.0384524 0.0387519 0.0390213 0.0392703 0.0395065 
0.0397396 0.0399766 0.040226 0.0404945 0.0407893 0.0411167 0.0414836 0.0418963 0.0423621 
0.0428884 0.0434837 0.0441571 0.0449192 0.0457818 0.0467583 0.0478631 0.0491126 0.0505224 
0.0521109 0.0538879 0.0558696 0.0580422 0.0604123 0.0629038 0.0655081 0.0680323 0.0704669 
0.0725061 0.074181 0.0752607 0.075841 0.0754319 0.0375088 0.0379394 0.0383227 0.0386633 
0.0389675 0.0392416 0.0394955 0.0397363 0.039974 0.0402154 0.0404691 0.0407417 0.0410404 
0.0413715 0.0417418 0.0421576 0.0426259 0.0431539 0.0437496 0.0444219 0.0451804 0.0460362 
0.0470014 0.0480889 0.0493131 0.050687 0.0522258 0.0539362 0.0558295 0.0578902 0.0601183 
0.0624446 0.0648526 0.0671794 0.0694028 0.0712763 0.0728088 0.0737944 0.0743106 0.0738983 
0.0377151 0.0381473 0.0385339 0.038878 0.0391865 0.0394648 0.0397231 0.0399682 0.04021 
0.0404555 0.0407131 0.0409894 0.0412916 0.041626 0.0419991 0.0424173 0.0428873 0.043416 
0.0440111 0.0446808 0.0454342 0.0462814 0.0472333 0.0483013 0.049498 0.050834 0.0523216 
0.0539645 0.0557702 0.0577217 0.0598142 0.0619847 0.0642108 0.0663551 0.0683865 0.0701048 
0.0715034 0.0723981 0.0728519 0.0724359 0.0379258 0.0383595 0.0387492 0.0390964 0.0394087 
0.0396907 0.039953 0.040202 0.0404477 0.0406968 0.0409578 0.0412374 0.0415427 0.0418797 
0.0422552 0.042675 0.0431458 0.0436743 0.0442675 0.0449333 0.0456801 0.046517 0.0474537 
0.0485003 0.0496675 0.0509638 0.0523988 0.053974 0.0556932 0.0575387 0.0595018 0.0615253 
0.063583 0.0655583 0.067415 0.0689881 0.0702614 0.0710688 0.0714624 0.0710424 0.0381407 
0.0385757 0.0389683 0.0393182 0.0396339 0.0399193 0.0401851 0.0404376 0.0406866 0.0409389 
0.0412031 0.0414855 0.0417933 0.0421325 0.0425095 0.0429303 0.0434011 0.0439283 0.0445185 
0.0451791 0.0459178 0.0467426 0.0476625 0.0486859 0.0498218 0.0510769 0.0524585 0.0539659 
0.0556001 0.057343 0.0591828 0.0610679 0.0629695 0.0647884 0.0664853 0.067923 0.0690792 
0.0698037 0.0701397 0.0697154 0.0383594 0.0387959 0.039191 0.0395433 0.039862 0.0401503 
0.0404193 0.0406747 0.0409267 0.0411818 0.0414486 0.0417333 0.0420431 0.0423839 0.0427619 
0.0431828 0.0436527 0.0441775 0.0447637 0.0454178 0.0461468 0.0469582 0.0478595 0.0488579 
0.0499611 0.0511739 0.0525014 0.0539414 0.0554923 0.0571361 0.0588588 0.0606136 0.0623705 
0.0640444 0.065595 0.0669067 0.0679539 0.0685999 0.0688811 0.0684526 0.0385819 0.0390197 
0.039417 0.0397715 0.0400927 0.0403836 0.0406552 0.0409132 0.0411676 0.0414251 0.041694 
0.0419806 0.0422919 0.0426336 0.0430119 0.0434322 0.0439002 0.0444218 0.0450026 0.0456489 
0.046367 0.0471633 0.0480445 0.0490167 0.0500858 0.0512553 0.0525284 0.0539017 0.0553714 
0.0569197 0.0585312 0.0601635 0.0617861 0.0633257 0.0647421 0.0659368 0.0668826 0.0674547 
0.0676841 0.0672515 0.0388078 0.0392468 0.0396462 0.0400025 0.0403259 0.0406189 0.0408926 
0.0411527 0.0414093 0.0416686 0.0419392 0.0422271 0.0425392 0.0428813 0.0432591 0.0436779 
0.0441433 0.0446605 0.045235 0.0458723 0.0465781 0.047358 0.0482178 0.0491623 0.0501962 
0.0513218 0.0525405 0.0538479 0.0552386 0.0566953 0.0582013 0.0597185 0.0612165 0.0626316 
0.0639248 0.0650109 0.0658626 0.0663655 0.0665463 0.0661096 0.0390367 0.039477 0.0398782 
0.0402361 0.0405612 0.0408559 0.0411314 0.0413932 0.0416513 0.041912 0.0421837 0.0424724 
0.0427848 0.0431265 0.0435032 0.0439198 0.0443816 0.0448935 0.0454605 0.0460876 0.0467798 
0.0475421 0.0483792 0.0492949 0.0502929 0.0513741 0.0525387 0.0537813 0.0550955 0.0564642 
0.0578705 0.0592795 0.0606618 0.0619615 0.0631414 0.064127 0.0648915 0.0653298 0.0654651 
0.0650246 0.0392686 0.03971 0.0401128 0.0404719 0.0407985 0.0410945 0.0413713 0.0416343 
0.0418935 0.0421551 0.0424273 0.0427162 0.0430284 0.0433691 0.0437438 0.0441574 0.0446147 
0.0451203 0.0456788 0.0462945 0.0469721 0.0477155 0.0485288 0.049415 0.0503763 0.051413 
0.0525239 0.0537031 0.0549432 0.0562278 0.0575397 0.0588473 0.0601221 0.061315 0.0623905 
0.063283 0.0639669 0.0643451 0.064438 0.063994 0.0395029 0.0399455 0.0403496 0.0407098 
0.0410374 0.0413343 0.041612 0.0418757 0.0421355 0.0423975 0.0426698 0.0429583 0.0432695 
0.0436085 0.0439806 0.0443904 0.0448423 0.0453407 0.0458896 0.046493 0.0471548 0.0478784 
0.048667 0.0495227 0.0504469 0.0514391 0.052497 0.0536144 0.054783 0.0559873 0.05721 
0.0584225 0.0595975 0.0606913 0.0616709 0.0624774 0.0630867 0.0634092 0.0634627 0.0630155 
0.0397395 0.0401832 0.0405885 0.0409493 0.0412777 0.0415751 0.0418532 0.0421172 0.0423771 
0.0426389 0.0429107 0.0431983 0.0435079 0.0438446 0.0442133 0.0446185 0.0450642 0.0455544 
0.0460928 0.0466829 0.0473279 0.0480307 0.0487938 0.0496185 0.0505054 0.0514532 0.052459 
0.0535162 0.0546161 0.0557437 0.0568824 0.0580057 0.059088 0.0600901 0.0609812 0.0617083 
0.0622489 0.0625198 0.0625369 0.0620867 0.0399779 0.0404227 0.0408289 0.0411903 0.041519 
0.0418165 0.0420946 0.0423584 0.0426179 0.042879 0.0431498 0.0434359 0.0437433 0.0440769 
0.0444416 0.0448413 0.04528 0.0457612 0.0462882 0.046864 0.0474914 0.0481727 0.0489095 
0.0497028 0.0505523 0.0514562 0.052411 0.0534097 0.0544435 0.0554983 0.0565577 0.0575976 
0.0585938 0.0595109 0.0603205 0.0609744 0.0614515 0.0616749 0.0616583 0.0612054 0.0402178 
0.0406636 0.0410707 0.0414323 0.041761 0.0420582 0.0423359 0.0425991 0.0428576 0.0431176 
0.0433868 0.0436707 0.0439753 0.0443053 0.0446651 0.0450587 0.0454895 0.0459609 0.0464756 
0.0470364 0.0476454 0.0483044 0.0490145 0.0497761 0.0505883 0.0514489 0.0523537 0.0532958 
0.0542664 0.0552519 0.0562367 0.0571984 0.0581147 0.0589533 0.0596877 0.0602741 0.0606929 
0.0608725 0.0608248 0.0603695 0.0404589 0.0409057 0.0413134 0.0416749 0.0420034 0.0423 
0.0425768 0.0428388 0.043096 0.0433543 0.0436213 0.0439025 0.0442037 0.0445293 0.0448836 
0.0452703 0.0456926 0.0461533 0.046655 0.0471999 0.0477899 0.048426 0.0491091 0.0498388 
0.050614 0.0514319 0.0522881 0.0531757 0.0540858 0.0550055 0.05592 0.0568088 0.0576508 
0.0584167 0.0590819 0.0596061 0.0599712 0.0601105 0.0600344 0.0595768 0.0407008 0.0411485 
0.0415566 0.041918 0.0422457 0.0425413 0.0428169 0.0430773 0.0433326 0.0435887 0.043853 
0.0441309 0.0444281 0.0447487 0.0450969 0.0454759 0.0458889 0.0463383 0.0468263 0.0473547 
0.047925 0.0485379 0.0491936 0.0498916 0.0506301 0.0514061 0.0522151 0.0530501 0.0539025 
0.0547599 0.0556085 0.0564291 0.0572021 0.0579007 0.0585022 0.0589692 0.0592849 0.0593872 
0.0592849 0.0588255 0.0409431 0.0413917 0.0418 0.0421609 0.0424877 0.042782 0.0430558 
0.0433143 0.0435672 0.0438205 0.0440816 0.0443557 0.0446482 0.0449632 0.0453046 0.0456754 
0.0460784 0.0465158 0.0469895 0.0475008 0.048051 0.0486402 0.0492686 0.0499349 0.0506373 
0.0513724 0.0521356 0.0529201 0.0537174 0.054516 0.0553025 0.0560595 0.0567686 0.057405 
0.0579477 0.0583622 0.0586325 0.0587008 0.0585746 0.0581135 0.0411853 0.0416348 0.0420432 
0.0424034 0.042729 0.0430216 0.0432933 0.0435493 0.0437994 0.0440495 0.0443068 0.0445765 
0.0448638 0.0451726 0.0455066 0.0458685 0.046261 0.0466857 0.0471445 0.0476384 0.048168 
0.0487334 0.0493343 0.0499693 0.0506362 0.0513314 0.0520504 0.0527864 0.0535314 0.0542744 
0.0550028 0.0557004 0.0563501 0.056929 0.0574177 0.0577838 0.0580125 0.0580498 0.0579017 
0.0574391 0.0414272 0.0418775 0.0422858 0.0426451 0.0429692 0.0432597 0.0435289 0.0437821 
0.0440289 0.0442753 0.0445284 0.0447931 0.0450747 0.0453767 0.0457027 0.0460552 0.0464364 
0.0468481 0.0472915 0.0477674 0.0482762 0.0488178 0.0493914 0.0499954 0.0506274 0.051284 
0.0519603 0.05265 0.0533452 0.0540357 0.0547096 0.0553519 0.0559466 0.0564725 0.0569114 
0.0572331 0.0574236 0.0574324 0.0572643 0.0568005 0.0416683 0.0421193 0.0425275 0.0428856 
0.0432078 0.043496 0.0437623 0.0440122 0.0442554 0.0444975 0.0447459 0.0450052 0.0452805 
0.0455752 0.0458927 0.0462352 0.0466048 0.0470029 0.0474305 0.0478882 0.0483761 0.0488937 
0.0494402 0.0500137 0.0506117 0.0512308 0.0518661 0.0525115 0.0531596 0.0538006 0.0544235 
0.0550143 0.055558 0.0560349 0.056428 0.0567089 0.0568645 0.0568473 0.0566609 0.0561961 
0.0419081 0.0423599 0.0427676 0.0431245 0.0434446 0.04373 0.0439932 0.0442394 0.0444784 
0.044716 0.0449591 0.0452125 0.045481 0.045768 0.0460765 0.0464086 0.0467661 0.0471502 
0.0475617 0.0480009 0.0484677 0.0489616 0.0494812 0.0500248 0.0505898 0.0511725 0.0517685 
0.0523717 0.0529751 0.0535696 0.0541448 0.0546876 0.0551841 0.0556158 0.0559667 0.0562103 
0.0563338 0.0562929 0.0560899 0.0556242 0.0421463 0.0425988 0.043006 0.0433613 0.043679 
0.0439615 0.0442211 0.0444633 0.0446978 0.0449303 0.0451677 0.0454148 0.0456761 0.0459549 
0.0462539 0.0465751 0.0469202 0.04729 0.0476851 0.0481058 0.0485516 0.0490218 0.049515 
0.0500294 0.0505622 0.0511099 0.0516682 0.0522313 0.0527925 0.0533432 0.0538738 0.054372 
0.0548248 0.0552148 0.055527 0.0557364 0.0558305 0.0557679 0.0555498 0.0550834 0.0423825 
0.0428356 0.0432421 0.0435957 0.0439108 0.04419 0.0444457 0.0446835 0.0449131 0.0451402 
0.0453716 0.0456119 0.0458656 0.0461357 0.0464249 0.0467349 0.0470671 0.0474224 0.047801 
0.048203 0.0486279 0.0490747 0.0495421 0.0500279 0.0505296 0.0510436 0.0515658 0.0520908 
0.0526121 0.0531218 0.0536108 0.0540675 0.0544799 0.0548314 0.0551081 0.0552861 0.0553535 
0.055271 0.0550392 0.0545722 0.0426162 0.0430699 0.0434756 0.0438273 0.0441396 0.0444152 
0.0446667 0.0448998 0.0451241 0.0453454 0.0455704 0.0458036 0.0460493 0.0463104 0.0465894 
0.0468879 0.0472071 0.0475476 0.0479096 0.048293 0.0486971 0.0491209 0.0495628 0.0500209 
0.0504925 0.0509743 0.0514621 0.0519509 0.0524346 0.0529058 0.053356 0.0537742 0.0541492 
0.0544654 0.0547094 0.0548586 0.0549015 0.0548011 0.0545567 0.0540893 0.0428471 0.0433014 
0.0437061 0.0440557 0.0443649 0.0446367 0.0448837 0.0451118 0.0453305 0.0455456 0.0457639 
0.0459896 0.046227 0.0464788 0.0467473 0.047034 0.04734 0.0476656 0.048011 0.0483759 
0.0487595 0.0491606 0.0495778 0.050009 0.0504516 0.0509024 0.0513575 0.0518121 0.0522604 
0.0526955 0.0531095 0.053492 0.0538325 0.0541161 0.0543301 0.0544531 0.0544736 0.0543568 
0.0541011 0.0536334 0.0430747 0.0435295 0.0439331 0.0442805 0.0445863 0.0448542 0.0450964 
0.0453191 0.045532 0.0457407 0.0459519 0.0461698 0.0463986 0.0466408 0.0468986 0.0471734 
0.047466 0.0477767 0.0481056 0.0484521 0.0488154 0.0491944 0.0495876 0.0499928 0.0504075 
0.0508287 0.0512526 0.0516748 0.0520899 0.0524913 0.0528715 0.0532209 0.0535295 0.0537832 
0.0539698 0.0540687 0.0540688 0.0539371 0.0536711 0.0532033 0.0432987 0.0437539 0.0441564 
0.0445014 0.0448037 0.0450672 0.0453044 0.0455216 0.0457283 0.0459303 0.0461342 0.0463441 
0.046564 0.0467965 0.0470434 0.0473061 0.0475853 0.0478811 0.0481935 0.0485218 0.0488653 
0.0492228 0.0495925 0.0499726 0.0503606 0.0507535 0.051148 0.0515396 0.0519234 0.0522933 
0.0526421 0.0529609 0.0532401 0.0534662 0.0536276 0.0537046 0.0536861 0.0535409 0.0532657 
0.0527978 0.0435187 0.0439743 0.0443754 0.0447179 0.0450165 0.0452756 0.0455076 0.045719 
0.0459193 0.0461144 0.0463107 0.0465124 0.0467232 0.0469457 0.0471817 0.0474322 0.0476979 
0.0479789 0.048275 0.0485855 0.0489096 0.049246 0.0495931 0.049949 0.0503114 0.0506775 
0.0510439 0.0514067 0.0517613 0.0521017 0.0524214 0.0527118 0.0529639 0.0531648 0.0533031 
0.0533601 0.0533247 0.0531672 0.0528836 0.0524157 0.0437343 0.0441903 0.0445899 0.0449297 
0.0452245 0.045479 0.0457055 0.0459109 0.0461046 0.0462926 0.0464812 0.0466744 0.0468761 
0.0470885 0.0473134 0.0475517 0.0478041 0.0480704 0.0483504 0.0486434 0.0489485 0.0492645 
0.0495898 0.0499226 0.0502605 0.050601 0.050941 0.0512767 0.0516037 0.0519167 0.0522094 
0.0524736 0.0527007 0.0528784 0.0529957 0.0530344 0.0529836 0.0528151 0.0525239 0.0520561 
0.0439452 0.0444015 0.0447996 0.0451366 0.0454274 0.045677 0.0458979 0.0460972 0.0462841 
0.0464648 0.0466455 0.0468302 0.0470226 0.0472249 0.0474387 0.0476649 0.0479039 0.0481557 
0.0484199 0.0486959 0.0489826 0.0492788 0.0495831 0.0498936 0.0502082 0.0505245 0.0508395 
0.0511497 0.0514511 0.0517385 0.0520061 0.0522461 0.0524502 0.0526066 0.0527047 0.0527268 
0.0526621 0.0524835 0.0521855 0.0517179 0.0441511 0.0446077 0.0450042 0.0453382 0.0456249 
0.0458695 0.0460847 0.0462776 0.0464576 0.0466309 0.0468036 0.0469797 0.0471628 0.0473549 
0.0475576 0.0477717 0.0479976 0.0482352 0.0484839 0.0487432 0.0490121 0.0492892 0.0495733 
0.0498626 0.0501551 0.0504484 0.0507398 0.0510261 0.0513035 0.0515671 0.0518114 0.052029 
0.0522121 0.052349 0.0524296 0.0524366 0.0523592 0.0521716 0.0518675 0.0514001 0.0443517 
0.0448085 0.0452032 0.0455343 0.0458167 0.0460562 0.0462655 0.046452 0.046625 0.0467908 
0.0469554 0.0471229 0.0472966 0.0474785 0.0476703 0.0478725 0.0480854 0.048309 0.0485427 
0.0487858 0.0490373 0.0492962 0.0495609 0.0498299 0.0501013 0.0503729 0.0506422 0.0509061 
0.051161 0.0514025 0.0516253 0.0518224 0.051986 0.0521052 0.0521698 0.0521631 0.0520743 
0.0518786 0.051569 0.0511019 0.0445468 0.0450037 0.0453966 0.0457246 0.0460026 0.0462369 
0.0464402 0.0466201 0.0467861 0.0469443 0.0471008 0.0472596 0.047424 0.0475959 0.0477768 
0.0479672 0.0481675 0.0483774 0.0485964 0.0488238 0.0490587 0.0493 0.0495462 0.049796 
0.0500474 0.0502985 0.050547 0.0507899 0.0510239 0.0512449 0.0514478 0.0516259 0.0517718 
0.0518747 0.0519247 0.0519057 0.0518066 0.0516035 0.0512891 0.0508224 0.044736 0.0451931 
0.0455841 0.0459088 0.0461823 0.0464114 0.0466086 0.0467819 0.0469408 0.0470914 0.0472399 
0.04739 0.0475451 0.0477071 0.0478773 0.0480562 0.0482441 0.0484406 0.0486454 0.0488577 
0.0490766 0.049301 0.0495296 0.0497611 0.0499936 0.0502254 0.0504543 0.0506776 0.0508922 
0.0510941 0.0512787 0.0514393 0.0515689 0.0516571 0.0516939 0.0516637 0.0515553 0.0513457 
0.0510269 0.0505607 0.0449193 0.0453764 0.0457654 0.0460869 0.0463558 0.0465795 0.0467706 
0.0469373 0.047089 0.0472321 0.0473725 0.0475141 0.04766 0.0478122 0.0479719 0.0481395 
0.0483153 0.048499 0.04869 0.0488878 0.0490913 0.0492996 0.0495114 0.0497255 0.0499402 
0.0501539 0.0503644 0.0505694 0.050766 0.0509503 0.0511178 0.0512625 0.0513772 0.0514519 
0.0514768 0.0514365 0.0513198 0.0511044 0.0507818 0.050316 0.0450963 0.0455535 0.0459405 
0.0462586 0.0465229 0.0467411 0.046926 0.0470861 0.0472307 0.0473662 0.0474986 0.0476318 
0.0477688 0.0479114 0.0480608 0.0482174 0.0483815 0.0485527 0.0487305 0.0489142 0.0491031 
0.049296 0.0494919 0.0496896 0.0498875 0.0500841 0.0502775 0.0504654 0.0506452 0.0508132 
0.0509651 0.0510951 0.0511962 0.0512587 0.0512728 0.0512235 0.0510994 0.0508789 0.0505529 
0.0500876 0.0452671 0.0457242 0.0461091 0.0464237 0.0466834 0.0468961 0.0470749 0.0472282 
0.0473658 0.0474938 0.0476184 0.0477433 0.0478715 0.0480047 0.0481441 0.0482901 0.0484428 
0.0486019 0.048767 0.0489374 0.0491122 0.0492906 0.0494714 0.0496535 0.0498357 0.0500163 
0.0501937 0.0503657 0.0505299 0.0506828 0.0508204 0.0509369 0.0510257 0.0510771 0.0510815 
0.0510241 0.0508934 0.0506684 0.0503395 0.0498748 0.0454315 0.0458884 0.0462711 0.0465823 
0.0468372 0.0470444 0.047217 0.0473638 0.0474943 0.047615 0.0477318 0.0478486 0.0479682 
0.0480923 0.048222 0.0483577 0.0484995 0.048647 0.0487999 0.0489575 0.049119 0.0492835 
0.0494501 0.0496176 0.0497849 0.0499506 0.050113 0.0502703 0.0504201 0.0505591 0.0506835 
0.0507877 0.0508652 0.0509066 0.0509023 0.0508377 0.0507012 0.0504723 0.0501409 0.0496768 
0.0455893 0.0460461 0.0464266 0.0467342 0.0469843 0.0471861 0.0473525 0.0474927 0.0476162 
0.0477297 0.047839 0.0479478 0.048059 0.0481743 0.0482946 0.0484204 0.0485517 0.0486882 
0.0488294 0.0489748 0.0491237 0.0492751 0.0494282 0.049582 0.0497354 0.0498871 0.0500357 
0.0501792 0.0503156 0.0504418 0.0505541 0.0506471 0.0507144 0.0507468 0.0507347 0.0506638 
0.0505222 0.05029 0.0499564 0.0494929 0.0457406 0.0461972 0.0465753 0.0468794 0.0471247 
0.0473209 0.0474812 0.0476149 0.0477316 0.0478381 0.04794 0.0480411 0.0481442 0.0482509 
0.0483622 0.0484784 0.0485997 0.0487256 0.0488558 0.0489896 0.0491265 0.0492655 0.049406 
0.0495469 0.0496873 0.049826 0.0499616 0.0500925 0.0502165 0.0503309 0.0504321 0.0505149 
0.050573 0.0505973 0.0505783 0.0505019 0.0503558 0.0501207 0.0497854 0.0493226 0.0458854 
0.0463417 0.0467175 0.0470179 0.0472584 0.0474491 0.0476033 0.0477306 0.0478406 0.0479401 
0.0480348 0.0481285 0.0482238 0.0483223 0.0484249 0.048532 0.0486437 0.0487595 0.0488792 
0.0490021 0.0491276 0.0492551 0.0493836 0.0495125 0.0496407 0.0497673 0.0498909 0.05001 
0.0501227 0.0502262 0.0503173 0.0503908 0.0504405 0.0504577 0.0504326 0.0503513 0.0502015 
0.049964 0.0496273 0.0491652 0.0460236 0.0464796 0.046853 0.0471497 0.0473854 0.0475705 
0.0477187 0.0478397 0.0479432 0.0480359 0.0481237 0.0482102 0.0482979 0.0483886 0.0484829 
0.0485814 0.0486838 0.0487901 0.0488998 0.0490124 0.0491273 0.0492438 0.0493612 0.0494789 
0.0495958 0.049711 0.0498235 0.0499317 0.0500339 0.0501276 0.0502094 0.0502744 0.0503167 
0.0503275 0.050297 0.0502116 0.0500586 0.0498192 0.0494814 0.0490201 0.0461554 0.046611 
0.0469819 0.0472749 0.0475057 0.0476854 0.0478276 0.0479423 0.0480394 0.0481257 0.0482068 
0.0482863 0.0483669 0.04845 0.0485364 0.0486266 0.0487204 0.0488177 0.0489179 0.0490208 
0.0491257 0.049232 0.049339 0.0494461 0.0495525 0.0496572 0.0497594 0.0498576 0.0499502 
0.0500348 0.0501081 0.0501656 0.0502011 0.0502063 0.0501712 0.0500823 0.0499267 0.0496858 
0.0493472 0.0488867 0.0462809 0.0467359 0.0471044 0.0473936 0.0476195 0.0477937 0.04793 
0.0480387 0.0481295 0.0482095 0.0482841 0.048357 0.0484307 0.0485067 0.0485856 0.0486679 
0.0487536 0.0488423 0.0489337 0.0490274 0.0491229 0.0492196 0.049317 0.0494143 0.0495109 
0.049606 0.0496986 0.0497876 0.0498713 0.0499476 0.0500133 0.0500639 0.0500935 0.0500937 
0.0500546 0.0499628 0.0498052 0.0495633 0.0492241 0.0487645 0.0464001 0.0468546 0.0472205 
0.0475059 0.0477269 0.0478956 0.0480261 0.0481288 0.0482136 0.0482875 0.0483559 0.0484225 
0.0484897 0.0485588 0.0486307 0.0487056 0.0487835 0.0488642 0.0489473 0.0490325 0.0491192 
0.049207 0.0492953 0.0493835 0.0494711 0.0495572 0.0496411 0.0497215 0.0497972 0.0498658 
0.0499246 0.049969 0.0499934 0.0499892 0.0499469 0.0498528 0.0496936 0.049451 0.0491116 
0.0486529 0.0465133 0.0469671 0.0473303 0.0476119 0.047828 0.0479913 0.048116 0.0482129 
0.0482918 0.0483599 0.0484224 0.0484829 0.0485439 0.0486066 0.0486718 0.0487398 0.0488104 
0.0488836 0.0489589 0.0490361 0.0491147 0.0491941 0.049274 0.0493539 0.049433 0.0495109 
0.0495867 0.0496593 0.0497276 0.0497893 0.0498418 0.0498807 0.0499004 0.0498926 0.0498475 
0.0497516 0.0495914 0.0493485 0.0490092 0.0485515 0.0466206 0.0470737 0.0474342 0.0477117 
0.0479229 0.0480808 0.0481998 0.048291 0.0483643 0.0484267 0.0484836 0.0485385 0.0485936 
0.0486503 0.0487092 0.0487706 0.0488344 0.0489006 0.0489687 0.0490384 0.0491094 0.0491811 
0.0492533 0.0493253 0.0493967 0.049467 0.0495353 0.0496009 0.0496623 0.0497178 0.0497646 
0.0497986 0.0498143 0.0498033 0.0497561 0.0496589 0.0494981 0.0492554 0.0489164 0.0484597 
0.0467222 0.0471745 0.0475322 0.0478057 0.0480119 0.0481644 0.0482778 0.0483635 0.0484313 
0.0484883 0.0485399 0.0485893 0.0486389 0.0486899 0.048743 0.0487982 0.0488558 0.0489154 
0.0489767 0.0490395 0.0491034 0.0491681 0.049233 0.0492979 0.0493622 0.0494254 0.049487 
0.049546 0.0496013 0.0496511 0.0496928 0.0497224 0.0497345 0.0497211 0.0496721 0.0495743 
0.0494133 0.0491711 0.0488326 0.048377 0.0468183 0.0472698 0.0476246 0.047894 0.0480951 
0.0482423 0.0483501 0.0484304 0.0484929 0.0485448 0.0485913 0.0486357 0.0486801 0.0487258 
0.0487733 0.0488229 0.0488746 0.0489281 0.0489831 0.0490396 0.049097 0.049155 0.0492133 
0.0492716 0.0493293 0.0493862 0.0494415 0.0494945 0.0495442 0.0495888 0.049626 0.0496518 
0.0496609 0.0496454 0.0495953 0.0494971 0.0493365 0.0490951 0.0487575 0.0483031 0.0469093 
0.0473597 0.0477116 0.0479768 0.0481728 0.0483146 0.048417 0.048492 0.0485494 0.0485964 
0.0486381 0.0486777 0.0487173 0.0487581 0.0488005 0.0488448 0.048891 0.0489388 0.0489881 
0.0490386 0.04909 0.049142 0.0491942 0.0492464 0.0492982 0.0493491 0.0493987 0.0494463 
0.0494909 0.0495309 0.049564 0.0495865 0.0495931 0.0495759 0.0495251 0.0494272 0.0492673 
0.0490271 0.0486906 0.0482375 0.0469954 0.0474447 0.0477934 0.0480543 0.0482452 0.0483815 
0.0484786 0.0485484 0.048601 0.0486433 0.0486805 0.0487156 0.0487508 0.0487869 0.0488246 
0.048864 0.0489051 0.0489478 0.0489917 0.0490368 0.0490826 0.049129 0.0491757 0.0492223 
0.0492686 0.0493142 0.0493586 0.0494013 0.0494412 0.0494771 0.0495065 0.0495261 0.0495306 
0.0495123 0.0494612 0.0493639 0.0492053 0.0489666 0.0486315 0.0481797 0.0470768 0.047525 
0.0478704 0.0481269 0.0483125 0.0484434 0.0485351 0.0485999 0.0486478 0.0486857 0.0487187 
0.0487497 0.0487806 0.0488125 0.0488458 0.0488807 0.0489172 0.048955 0.0489941 0.0490341 
0.0490749 0.0491162 0.0491578 0.0491993 0.0492406 0.0492813 0.049321 0.0493592 0.049395 
0.049427 0.0494533 0.0494703 0.0494731 0.0494541 0.0494032 0.049307 0.0491499 0.0489132 
0.0485798 0.0481294 0.047154 0.0476008 0.0479429 0.0481947 0.048375 0.0485004 0.0485868 
0.0486467 0.0486901 0.0487239 0.0487528 0.04878 0.0488071 0.048835 0.0488643 0.0488951 
0.0489272 0.0489607 0.0489953 0.0490307 0.0490669 0.0491035 0.0491404 0.0491774 0.0492141 
0.0492503 0.0492857 0.0493198 0.0493519 0.0493806 0.049404 0.0494189 0.0494204 0.049401 
0.0493507 0.0492559 0.049101 0.0488666 0.0485351 0.0480862 0.0472272 0.0476725 0.048011 
0.048258 0.0484329 0.0485528 0.0486339 0.0486891 0.0487281 0.0487579 0.0487832 0.0488067 
0.0488303 0.0488546 0.0488803 0.0489072 0.0489355 0.0489649 0.0489954 0.0490267 0.0490586 
0.049091 0.0491237 0.0491564 0.0491889 0.0492211 0.0492527 0.0492831 0.0493117 0.0493375 
0.0493584 0.0493715 0.049372 0.0493526 0.0493033 0.0492104 0.0490579 0.0488263 0.0484971 
0.0480498 0.0472967 0.0477404 0.0480752 0.0483172 0.0484864 0.0486007 0.0486767 0.0487271 
0.048762 0.0487881 0.0488099 0.0488302 0.0488505 0.0488716 0.0488938 0.0489173 0.048942 
0.0489677 0.0489945 0.049022 0.0490501 0.0490786 0.0491074 0.0491363 0.0491651 0.0491937 
0.0492217 0.0492488 0.0492744 0.0492975 0.0493163 0.0493279 0.0493277 0.0493086 0.0492606 
0.04917 0.0490205 0.0487919 0.0484654 0.0480199 0.047363 0.0478049 0.0481357 0.0483724 
0.0485358 0.0486445 0.0487152 0.0487611 0.048792 0.0488146 0.0488333 0.0488505 0.0488678 
0.0488859 0.0489051 0.0489254 0.0489468 0.0489693 0.0489926 0.0490167 0.0490413 0.0490663 
0.0490917 0.0491171 0.0491426 0.0491678 0.0491927 0.0492168 0.0492397 0.0492604 0.0492773 
0.0492877 0.0492871 0.0492686 0.0492224 0.0491345 0.0489883 0.0487633 0.0484396 0.0479961 
0.0474263 0.0478663 0.0481928 0.048424 0.0485814 0.0486842 0.0487498 0.0487913 0.0488184 
0.0488377 0.0488534 0.0488679 0.0488825 0.0488978 0.0489142 0.0489317 0.0489502 0.0489696 
0.0489899 0.0490108 0.0490323 0.0490542 0.0490764 0.0490987 0.0491211 0.0491434 0.0491654 
0.0491869 0.0492073 0.0492259 0.0492412 0.0492506 0.0492499 0.0492323 0.0491881 0.0491033 
0.0489609 0.0487399 0.0484196 0.0479782 0.0474871 0.047925 0.0482468 0.0484722 0.0486233 
0.0487203 0.0487807 0.0488178 0.0488413 0.0488575 0.0488705 0.0488825 0.0488946 0.0489075 
0.0489214 0.0489363 0.0489521 0.0489689 0.0489864 0.0490045 0.0490231 0.0490422 0.0490616 
0.0490811 0.0491008 0.0491204 0.0491398 0.0491589 0.0491771 0.0491939 0.0492078 0.0492164 
0.0492158 0.0491994 0.0491575 0.0490762 0.0489381 0.0487216 0.048405 0.0479659 0.0475458 
0.0479812 0.0482982 0.0485173 0.0486619 0.0487528 0.048808 0.0488408 0.0488609 0.0488743 
0.0488848 0.0488945 0.0489044 0.0489151 0.0489267 0.0489393 0.0489527 0.048967 0.048982 
0.0489977 0.0490138 0.0490303 0.0490471 0.0490642 0.0490813 0.0490986 0.0491157 0.0491327 
0.049149 0.0491641 0.0491768 0.0491848 0.0491845 0.0491695 0.0491303 0.0490529 0.0489195 
0.048708 0.0483956 0.047959 0.0476027 0.0480354 0.048347 0.0485595 0.0486973 0.048782 
0.0488319 0.0488606 0.0488774 0.0488882 0.0488964 0.048904 0.048912 0.0489207 0.0489303 
0.0489408 0.0489521 0.0489642 0.048977 0.0489904 0.0490042 0.0490185 0.049033 0.0490478 
0.0490628 0.0490779 0.049093 0.049108 0.0491226 0.0491363 0.049148 0.0491556 0.0491558 
0.0491424 0.049106 0.0490329 0.0489048 0.0486988 0.0483911 0.0479574 0.0476583 0.0480879 
0.0483937 0.0485991 0.0487296 0.0488079 0.0488527 0.0488774 0.0488911 0.0488994 0.0489056 
0.0489113 0.0489175 0.0489244 0.0489322 0.0489409 0.0489503 0.0489605 0.0489713 0.0489827 
0.0489945 0.0490067 0.0490192 0.0490321 0.0490451 0.0490583 0.0490716 0.0490849 0.049098 
0.0491103 0.0491211 0.0491285 0.0491293 0.0491176 0.0490845 0.049016 0.0488937 0.0486939 
0.0483915 0.0479609 0.0477129 0.0481392 0.0484386 0.0486363 0.0487592 0.0488309 0.0488705 
0.0488912 0.048902 0.048908 0.0489124 0.0489165 0.0489211 0.0489265 0.0489327 0.0489397 
0.0489475 0.0489559 0.048965 0.0489745 0.0489846 0.048995 0.0490057 0.0490168 0.0490281 
0.0490396 0.0490513 0.049063 0.0490748 0.049086 0.049096 0.0491033 0.0491047 0.049095 
0.0490653 0.0490018 0.0488859 0.0486929 0.0483964 0.0479693 0.047767 0.0481895 0.0484818 
0.0486712 0.048786 0.048851 0.0488853 0.0489023 0.0489103 0.0489144 0.048917 0.0489197 
0.0489229 0.0489269 0.0489318 0.0489373 0.0489436 0.0489505 0.048958 0.048966 0.0489745 
0.0489833 0.0489925 0.0490019 0.0490117 0.0490217 0.049032 0.0490424 0.0490529 0.0490631 
0.0490725 0.0490797 0.0490819 0.0490742 0.0490481 0.0489901 0.0488811 0.0486957 0.0484058 
0.0479827 0.0478212 0.0482393 0.0485237 0.048704 0.0488103 0.0488683 0.0488975 0.0489108 
0.0489163 0.0489185 0.0489197 0.0489211 0.0489231 0.048926 0.0489295 0.0489339 0.0489388 
0.0489444 0.0489505 0.0489572 0.0489642 0.0489716 0.0489794 0.0489875 0.0489959 0.0490046 
0.0490136 0.0490228 0.0490322 0.0490415 0.0490504 0.0490575 0.0490605 0.0490549 0.0490326 
0.0489804 0.0488789 0.048702 0.0484196 0.0480009 0.0478758 0.0482889 0.0485645 0.0487348 
0.0488321 0.048883 0.048907 0.0489168 0.0489199 0.0489205 0.0489205 0.0489208 0.0489218 
0.0489236 0.0489261 0.0489294 0.0489332 0.0489376 0.0489425 0.0489479 0.0489537 0.0489599 
0.0489665 0.0489734 0.0489806 0.0489881 0.0489959 0.0490041 0.0490125 0.0490211 0.0490294 
0.0490365 0.0490404 0.0490369 0.0490185 0.0489724 0.0488792 0.0487115 0.0484376 0.0480241 
0.0479315 0.0483387 0.0486043 0.0487638 0.0488514 0.0488949 0.0489139 0.0489204 0.0489215 
0.0489207 0.0489196 0.048919 0.0489191 0.04892 0.0489216 0.0489239 0.0489268 0.0489302 
0.0489341 0.0489384 0.0489431 0.0489483 0.0489537 0.0489595 0.0489657 0.0489722 0.048979 
0.0489862 0.0489938 0.0490016 0.0490095 0.0490166 0.0490212 0.0490198 0.0490054 0.0489658 
0.0488814 0.0487242 0.04846 0.0480523 0.0479888 0.0483891 0.0486434 0.0487908 0.0488682 
0.0489043 0.0489183 0.0489219 0.0489211 0.048919 0.048917 0.0489157 0.0489151 0.0489153 
0.0489161 0.0489176 0.0489196 0.0489222 0.0489252 0.0489286 0.0489324 0.0489366 0.0489411 
0.048946 0.0489512 0.0489568 0.0489627 0.0489691 0.0489758 0.048983 0.0489904 0.0489975 
0.0490029 0.0490035 0.0489931 0.0489601 0.0488853 0.0487397 0.0484866 0.0480859 0.0480484 
0.0484406 0.0486817 0.0488158 0.0488823 0.048911 0.0489203 0.0489211 0.0489187 0.0489157 
0.048913 0.0489111 0.04891 0.0489095 0.0489098 0.0489106 0.0489119 0.0489137 0.0489159 
0.0489186 0.0489216 0.048925 0.0489287 0.0489327 0.0489371 0.0489419 0.048947 0.0489526 
0.0489586 0.0489652 0.0489721 0.0489791 0.0489851 0.0489875 0.0489811 0.0489549 0.0488904 
0.0487577 0.0485175 0.048125 0.0481111 0.0484934 0.0487192 0.0488386 0.0488937 0.0489149 
0.0489199 0.0489183 0.0489146 0.0489108 0.0489077 0.0489053 0.0489037 0.0489029 0.0489026 
0.0489029 0.0489036 0.0489048 0.0489064 0.0489084 0.0489107 0.0489134 0.0489164 0.0489197 
0.0489234 0.0489274 0.0489318 0.0489367 0.048942 0.0489479 0.0489544 0.0489612 0.0489677 
0.0489718 0.0489691 0.0489498 0.0488962 0.0487779 0.0485528 0.0481701 0.0481777 0.0485478 
0.0487557 0.0488587 0.0489021 0.0489161 0.0489171 0.0489135 0.0489088 0.0489046 0.0489011 
0.0488985 0.0488966 0.0488954 0.0488948 0.0488947 0.048895 0.0488957 0.0488968 0.0488982 
0.0489 0.048902 0.0489044 0.0489071 0.0489101 0.0489134 0.0489172 0.0489213 0.048926 
0.0489313 0.0489373 0.0489438 0.0489506 0.048956 0.0489567 0.0489441 0.0489019 0.0487997 
0.0485924 0.048222 0.0482495 0.0486042 0.0487907 0.0488757 0.048907 0.0489142 0.0489118 
0.0489067 0.0489015 0.048897 0.0488934 0.0488907 0.0488888 0.0488874 0.0488865 0.0488861 
0.0488861 0.0488865 0.0488872 0.0488881 0.0488894 0.0488909 0.0488928 0.0488948 0.0488972 
0.0489 0.0489031 0.0489066 0.0489106 0.0489152 0.0489206 0.0489267 0.0489335 0.0489399 
0.0489435 0.0489373 0.0489069 0.0488224 0.0486363 0.0482814 0.0483278 0.0486622 0.0488231 
0.0488885 0.0489079 0.0489091 0.0489041 0.0488981 0.0488927 0.0488884 0.0488849 0.0488823 
0.0488804 0.048879 0.0488781 0.0488776 0.0488774 0.0488775 0.0488778 0.0488785 0.0488793 
0.0488804 0.0488817 0.0488833 0.0488852 0.0488873 0.0488897 0.0488926 0.0488959 0.0488998 
0.0489045 0.04891 0.0489164 0.0489233 0.0489291 0.0489286 0.0489098 0.0488448 0.0486841 
0.0483495 0.048415 0.0487217 0.0488516 0.0488961 0.0489043 0.0489006 0.0488939 0.0488877 
0.0488826 0.0488787 0.0488757 0.0488734 0.0488717 0.0488705 0.0488696 0.0488691 0.0488688 
0.0488688 0.0488689 0.0488693 0.0488698 0.0488705 0.0488714 0.0488725 0.0488738 0.0488754 
0.0488772 0.0488793 0.0488819 0.048885 0.0488888 0.0488934 0.0488992 0.048906 0.0489131 
0.0489172 0.0489094 0.0488652 0.0487355 0.0484286 0.0485119 0.0487791 0.0488726 0.0488964 
0.0488954 0.0488888 0.0488818 0.0488763 0.048872 0.0488689 0.0488665 0.0488648 0.0488635 
0.0488626 0.0488619 0.0488615 0.0488613 0.0488612 0.0488612 0.0488614 0.0488617 0.0488621 
0.0488626 0.0488633 0.0488641 0.0488651 0.0488663 0.0488677 0.0488695 0.0488717 0.0488744 
0.048878 0.0488826 0.0488885 0.0488957 0.0489025 0.0489037 0.04888 0.0487867 0.0485193 
0.0486281 0.0488332 0.0488829 0.0488872 0.0488801 0.0488728 0.0488672 0.0488632 0.0488605 
0.0488586 0.0488573 0.0488564 0.0488557 0.0488553 0.048855 0.0488547 0.0488546 0.0488546 
0.0488546 0.0488546 0.0488547 0.0488549 0.0488551 0.0488554 0.0488558 0.0488562 0.0488567 
0.0488574 0.0488582 0.0488594 0.0488608 0.0488628 0.0488657 0.0488698 0.0488755 0.0488829 
0.0488901 0.0488859 0.0488362 0.048631 0.0487449 0.0488624 0.0488753 0.0488701 0.0488633 
0.0488585 0.0488554 0.0488535 0.0488524 0.0488517 0.0488513 0.048851 0.0488508 0.0488507 
0.0488507 0.0488506 0.0488506 0.0488506 0.0488506 0.0488506 0.0488506 0.0488506 0.0488507 
0.0488507 0.0488508 0.0488509 0.048851 0.0488511 0.0488513 0.0488516 0.0488521 0.0488528 
0.048854 0.0488559 0.048859 0.0488638 0.0488706 0.0488759 0.0488629 0.0487454 
Vel_Mag_m_p_s 1 12320 float
0.0705338 0.0714194 0.0721864 0.0728535 0.0734291 0.0739306 0.0743733 0.0747823 0.0751891 
0.0756425 0.0762113 0.0769979 0.0781473 0.0798567 0.0823768 0.0859954 0.0909756 0.0974788 
0.105546 0.11509 0.125921 0.137789 0.150426 0.163565 0.176956 0.190371 0.203604 
0.21647 0.228801 0.240447 0.251267 0.261135 0.269934 0.277554 0.283897 0.288864 
0.292376 0.29433 0.29468 0.293278 0.0706818 0.0715628 0.0723247 0.0729818 0.0735442 
0.0740266 0.074444 0.0748187 0.0751803 0.0755734 0.0760623 0.0767428 0.077752 0.0792809 
0.0815805 0.0849567 0.0897057 0.0960127 0.103946 0.113432 0.124285 0.136246 0.149035 
0.162373 0.175996 0.189668 0.203172 0.216318 0.22893 0.240851 0.251938 0.262059 
0.271093 0.278927 0.285458 0.290589 0.294231 0.296293 0.296702 0.295361 0.0707906 
0.0716732 0.072439 0.0731003 0.0736681 0.0741561 0.0745794 0.0749592 0.0753238 0.0757152 
0.0761947 0.0768527 0.0778193 0.0792778 0.0814712 0.0847031 0.0892851 0.0954311 0.103227 
0.112618 0.123424 0.135389 0.148225 0.161644 0.175377 0.189178 0.202824 0.216119 
0.228883 0.240956 0.25219 0.262451 0.271615 0.279568 0.286204 0.291424 0.295137 
0.297253 0.297692 0.296367 0.0709063 0.0717888 0.0725516 0.0732077 0.0737675 0.0742442 
0.0746521 0.0750109 0.0753474 0.0757008 0.0761285 0.0767161 0.0775879 0.0789206 0.0809522 
0.0839839 0.0883552 0.0943131 0.101962 0.111266 0.122054 0.134067 0.147007 0.160576 
0.174493 0.188501 0.202371 0.215897 0.228895 0.241198 0.252655 0.263127 0.272487 
0.280618 0.287411 0.292766 0.296588 0.298786 0.299277 0.297974 0.0710559 0.0719398 
0.072705 0.0733634 0.0739257 0.0744043 0.074813 0.0751703 0.0755013 0.0758425 0.0762478 
0.0767974 0.0776089 0.0788506 0.0807537 0.0836138 0.0877764 0.0935338 0.101009 0.110189 
0.120916 0.13293 0.145929 0.159604 0.173663 0.187841 0.201899 0.215624 0.228825 
0.241331 0.252986 0.263647 0.273183 0.281475 0.288411 0.293886 0.297806 0.300077 
0.300614 0.299329 0.0711769 0.0720615 0.0728257 0.0734817 0.0740398 0.0745119 0.0749113 
0.0752554 0.0755678 0.0758827 0.0762508 0.0767474 0.0774846 0.0786231 0.0803883 0.0830706 
0.0870209 0.0925729 0.0998755 0.108936 0.11961 0.131639 0.144714 0.158516 0.17274 
0.187111 0.201381 0.215329 0.228758 0.241491 0.253365 0.264236 0.273968 0.282438 
0.289531 0.295141 0.29917 0.301522 0.302111 0.300846 0.0713388 0.0722245 0.0729899 
0.0736467 0.0742049 0.0746761 0.075073 0.0754118 0.0757147 0.0760137 0.0763559 0.0768119 
0.0774875 0.078536 0.0801745 0.082688 0.0864267 0.091757 0.0988664 0.107783 0.118378 
0.130398 0.143527 0.157437 0.171811 0.186363 0.200836 0.215 0.228651 0.241605 
0.253697 0.264775 0.274701 0.283348 0.290598 0.296342 0.300479 0.302913 0.303553 
0.302309 0.0714736 0.0723603 0.0731256 0.0737813 0.074337 0.0748041 0.0751945 0.075524 
0.0758131 0.0760919 0.0764044 0.0768171 0.0774297 0.0783887 0.0799029 0.082253 0.0857872 
0.0908883 0.097803 0.106572 0.117086 0.129096 0.142282 0.156303 0.170833 0.185574 
0.200257 0.214645 0.228526 0.241711 0.254029 0.265323 0.275451 0.284282 0.291695 
0.297579 0.301829 0.304347 0.305041 0.303818 0.0716388 0.0725266 0.0732926 0.0739482 
0.0745031 0.0749681 0.0753547 0.0756778 0.0759567 0.0762195 0.0765071 0.076882 0.0774377 
0.0783139 0.0797104 0.0819021 0.0852336 0.090099 0.096803 0.105407 0.115821 0.127805 
0.141033 0.155157 0.169836 0.18476 0.199651 0.214262 0.228374 0.241791 0.254336 
0.265848 0.27618 0.285197 0.292776 0.298801 0.303166 0.30577 0.306519 0.305318 
0.0717864 0.0726753 0.0734416 0.0740966 0.0746498 0.0751117 0.0754934 0.075809 0.0760768 
0.0763229 0.0765857 0.0769238 0.0774249 0.0782221 0.0795063 0.0815458 0.084681 0.0893127 
0.0957977 0.104229 0.114534 0.126485 0.139752 0.153975 0.168803 0.183912 0.199014 
0.213853 0.2282 0.241853 0.25463 0.266364 0.276905 0.286113 0.293862 0.300032 
0.304514 0.307206 0.308011 0.306833 0.0719535 0.0728435 0.0736104 0.0742651 0.0748171 
0.0752766 0.0756544 0.0759638 0.0762219 0.0764533 0.0766939 0.0769982 0.0774489 0.0781716 
0.0793494 0.0812419 0.0841855 0.0885832 0.0948342 0.103078 0.113261 0.125166 0.13846 
0.152776 0.167747 0.183039 0.198351 0.213417 0.228001 0.241893 0.254905 0.266864 
0.277617 0.287019 0.29494 0.301257 0.30586 0.308642 0.309504 0.308348 0.0721112 
0.0730025 0.0737698 0.0744241 0.0749747 0.0754317 0.0758053 0.0761083 0.076357 0.0765743 
0.0767937 0.0770661 0.0774694 0.078122 0.0791992 0.0809511 0.0837105 0.0878809 0.0938841 
0.101934 0.111984 0.123831 0.137146 0.151549 0.166662 0.182136 0.197659 0.212955 
0.227778 0.241912 0.255162 0.267351 0.278319 0.287918 0.296015 0.302483 0.307208 
0.310081 0.311002 0.30987 0.072281 0.0731734 0.0739412 0.0745952 0.0751446 0.0755992 
0.0759691 0.0762664 0.0765065 0.0767108 0.0769107 0.0771536 0.0775127 0.0780993 0.0790812 
0.0806982 0.0832785 0.0872237 0.0929736 0.100815 0.110718 0.122495 0.13582 0.150303 
0.165553 0.181207 0.19694 0.212466 0.227531 0.24191 0.255401 0.267823 0.279009 
0.288809 0.297083 0.303705 0.308554 0.31152 0.312501 0.311394 0.0724467 0.0733403 
0.0741086 0.0747624 0.0753106 0.0757629 0.0761291 0.0764209 0.0766528 0.0768449 0.0770266 
0.077242 0.0775599 0.0780848 0.0789766 0.0804656 0.082873 0.0865979 0.0920928 0.0997117 
0.109456 0.121152 0.134477 0.149033 0.164416 0.180249 0.196193 0.211951 0.22726 
0.241886 0.255622 0.268279 0.279687 0.289691 0.298147 0.304924 0.309899 0.312961 
0.314003 0.31292 0.0726198 0.0735147 0.0742835 0.074937 0.0754841 0.0759342 0.076297 
0.0765835 0.0768078 0.0769886 0.0771533 0.0773432 0.0776225 0.0780897 0.0788963 0.0802633 
0.0825036 0.0860137 0.0912529 0.0986337 0.108205 0.119807 0.133123 0.147744 0.163256 
0.179264 0.195419 0.21141 0.226964 0.24184 0.255823 0.268719 0.280353 0.290563 
0.299203 0.306139 0.311244 0.314402 0.315506 0.314449 0.072792 0.0736882 0.0744576 
0.0751108 0.0756568 0.0761048 0.0764642 0.0767459 0.0769629 0.0771331 0.077282 0.0774483 
0.0776916 0.0781049 0.0788311 0.0800828 0.0821622 0.0854643 0.0904525 0.0975758 0.106965 
0.118461 0.131755 0.146435 0.16207 0.178253 0.194617 0.210841 0.226643 0.241772 
0.256005 0.269144 0.281006 0.291426 0.300254 0.30735 0.312586 0.315843 0.31701 
0.31598 0.0729691 0.0738666 0.0746365 0.0752895 0.0758344 0.0762804 0.0766366 0.0769136 
0.0771238 0.0772842 0.0774183 0.0775626 0.0777724 0.0781353 0.0787858 0.0799279 0.0818529 
0.0849525 0.089692 0.0965481 0.10574 0.117117 0.130378 0.145108 0.160861 0.177214 
0.193788 0.210247 0.226297 0.241681 0.256168 0.269552 0.281645 0.292279 0.301297 
0.308557 0.313926 0.317284 0.318516 0.317512 0.0731468 0.0740456 0.0748161 0.0754689 
0.0760128 0.0764568 0.07681 0.0770825 0.0772863 0.0774374 0.0775579 0.0776816 0.0778604 
0.0781762 0.0787558 0.0797941 0.0815716 0.0844744 0.0889686 0.095552 0.104531 0.115774 
0.12899 0.143762 0.159627 0.176149 0.192931 0.209625 0.225926 0.241568 0.256311 
0.269943 0.282272 0.293122 0.302333 0.309759 0.315264 0.318724 0.320022 0.319045 
0.0733281 0.0742282 0.0749993 0.0756519 0.0761947 0.0766369 0.0769871 0.0772553 0.077453 
0.0775954 0.0777031 0.0778078 0.0779576 0.0782295 0.0787426 0.0796826 0.0813193 0.0840315 
0.0882845 0.0945923 0.10334 0.114436 0.127596 0.142399 0.158371 0.175057 0.192046 
0.208976 0.22553 0.241431 0.256434 0.270318 0.282885 0.293954 0.303362 0.310957 
0.3166 0.320164 0.321529 0.32058 0.0735108 0.0744123 0.075184 0.0758364 0.0763782 
0.0768184 0.0771657 0.0774299 0.0776219 0.077756 0.0778519 0.0779388 0.0780617 0.0782925 
0.0787435 0.0795905 0.0810934 0.0836212 0.0876391 0.0936715 0.102168 0.113104 0.126195 
0.141019 0.157092 0.173939 0.191134 0.2083 0.225108 0.241272 0.256537 0.270675 
0.283484 0.294776 0.304383 0.312149 0.317933 0.321603 0.323037 0.322117 0.0736963 
0.0745992 0.0753714 0.0760236 0.0765644 0.0770028 0.0773473 0.0776075 0.077794 0.0779204 
0.0780051 0.0780755 0.0781735 0.0783659 0.0787588 0.0795179 0.0808936 0.0832433 0.0870325 
0.0927932 0.101016 0.111779 0.124789 0.139625 0.15579 0.172795 0.190194 0.207596 
0.224661 0.241089 0.256619 0.271016 0.284069 0.295587 0.305396 0.313337 0.319264 
0.323041 0.324545 0.323654 0.0738836 0.0747878 0.0755607 0.0762127 0.0767525 0.077189 
0.0775308 0.0777872 0.0779684 0.0780875 0.0781618 0.0782167 0.0782915 0.0784483 0.0787868 
0.0794633 0.0807182 0.0828968 0.0864623 0.0919522 0.0998923 0.110466 0.12338 0.138215 
0.154467 0.171625 0.189227 0.206866 0.224187 0.240882 0.25668 0.271338 0.28464 
0.296387 0.306402 0.31452 0.320592 0.324478 0.326053 0.325192 0.0740733 0.0749789 
0.0757523 0.0764041 0.0769429 0.0773776 0.0777167 0.0779694 0.0781456 0.0782578 0.0783223 
0.0783628 0.078416 0.0785396 0.0788274 0.0794262 0.0805664 0.0825811 0.0859286 0.0911501 
0.0987998 0.109165 0.121968 0.136793 0.153123 0.170429 0.188232 0.206107 0.223687 
0.240652 0.256721 0.271643 0.285196 0.297176 0.307399 0.315697 0.321916 0.325915 
0.327562 0.326732 0.0742648 0.0751718 0.0759458 0.0765975 0.0771352 0.0775682 0.0779046 
0.0781536 0.078325 0.0784306 0.0784859 0.078513 0.0785461 0.0786389 0.0788792 0.0794053 
0.0804367 0.0822946 0.0854303 0.0903873 0.0977423 0.107877 0.120556 0.135358 0.151758 
0.169209 0.18721 0.205321 0.223161 0.240397 0.25674 0.27193 0.285738 0.297954 
0.308388 0.316869 0.323238 0.32735 0.329071 0.328272 0.0744586 0.0753669 0.0761415 
0.0767929 0.0773297 0.0777608 0.0780946 0.0783401 0.0785067 0.0786061 0.0786527 0.0786673 
0.0786817 0.0787459 0.0789417 0.0793997 0.080328 0.0820366 0.0849665 0.0896645 0.0967237 
0.106604 0.119145 0.133913 0.150374 0.167963 0.18616 0.204508 0.222608 0.240119 
0.256738 0.272199 0.286265 0.29872 0.309369 0.318036 0.324557 0.328784 0.33058 
0.329814 0.0746541 0.0755639 0.0763391 0.0769903 0.077526 0.0779553 0.0782864 0.0785284 
0.0786906 0.0787839 0.0788223 0.0788252 0.0788221 0.0788597 0.0790141 0.0794084 0.0802391 
0.0818055 0.0845362 0.0889811 0.0957471 0.105347 0.117737 0.132458 0.14897 0.166692 
0.185083 0.203666 0.222029 0.239815 0.256714 0.272449 0.286776 0.299474 0.310342 
0.319197 0.325873 0.330218 0.33209 0.331356 0.0748517 0.0757629 0.0765387 0.0771896 
0.0777242 0.0781517 0.0784803 0.0787188 0.0788765 0.0789641 0.0789947 0.0789867 0.0789673 
0.0789802 0.079096 0.0794307 0.0801695 0.0816005 0.0841391 0.0883355 0.0948075 0.104115 
0.116335 0.130995 0.147548 0.165397 0.183979 0.202797 0.221423 0.239487 0.256668 
0.272681 0.287273 0.300217 0.311306 0.320353 0.327186 0.33165 0.3336 0.3329 
0.0750512 0.0759637 0.07674 0.0773907 0.0779243 0.0783499 0.0786759 0.0789111 0.0790645 
0.0791465 0.0791697 0.0791514 0.0791168 0.0791068 0.0791866 0.0794656 0.080118 0.0814202 
0.0837742 0.0877273 0.0939062 0.10291 0.11494 0.129524 0.146108 0.164078 0.182847 
0.201899 0.22079 0.239134 0.2566 0.272894 0.287754 0.300948 0.312261 0.321502 
0.328496 0.333081 0.33511 0.334444 0.0752524 0.0761665 0.0769433 0.0775937 0.0781262 
0.0785499 0.0788732 0.0791051 0.0792543 0.079331 0.0793471 0.0793191 0.0792704 0.079239 
0.0792855 0.0795123 0.0800835 0.0812634 0.0834404 0.0871562 0.0930442 0.101737 0.113553 
0.128048 0.144651 0.162736 0.181688 0.200974 0.220129 0.238756 0.25651 0.273087 
0.28822 0.301666 0.313207 0.322646 0.329802 0.33451 0.33662 0.335989 0.0754555 
0.0763709 0.0771483 0.0777984 0.0783297 0.0787516 0.0790723 0.0793008 0.0794459 0.0795174 
0.0795268 0.0794897 0.0794278 0.0793764 0.0793919 0.0795699 0.0800651 0.0811289 0.0831365 
0.0866211 0.0922225 0.1006 0.112177 0.126566 0.143179 0.16137 0.180503 0.200021 
0.219441 0.238352 0.256397 0.273262 0.28867 0.302372 0.314145 0.323784 0.331105 
0.335938 0.338131 0.337535 0.0756603 0.0765772 0.0773551 0.0780048 0.078535 0.078955 
0.0792731 0.0794982 0.0796392 0.0797057 0.0797087 0.0796629 0.0795887 0.0795186 0.0795054 
0.0796378 0.0800618 0.0810153 0.0828615 0.0861209 0.0914415 0.099505 0.110808 0.125081 
0.141693 0.159981 0.17929 0.199039 0.218726 0.237923 0.256261 0.273416 0.289103 
0.303066 0.315073 0.324916 0.332405 0.337366 0.339641 0.339083 0.0758669 0.0767851 
0.0775636 0.0782129 0.0787419 0.0791599 0.0794754 0.0796972 0.0798342 0.0798957 0.0798926 
0.0798385 0.0797528 0.0796654 0.0796255 0.0797154 0.0800728 0.0809221 0.0826142 0.0856554 
0.0906993 0.0984466 0.109457 0.123596 0.140193 0.158571 0.178052 0.198029 0.217983 
0.237468 0.256102 0.273552 0.289521 0.303747 0.315992 0.326042 0.333701 0.338791 
0.341152 0.340631 0.0760751 0.0769947 0.0777737 0.0784227 0.0789504 0.0793664 0.0796792 
0.0798977 0.0800307 0.0800875 0.0800785 0.0800166 0.0799201 0.0798165 0.0797518 0.079802 
0.0800971 0.0808483 0.0823934 0.0852242 0.0899955 0.0974252 0.108128 0.122112 0.138681 
0.157138 0.176786 0.196991 0.217212 0.236987 0.25592 0.273667 0.289922 0.304415 
0.316902 0.327161 0.334993 0.340216 0.342663 0.34218 0.0762849 0.077206 0.0779854 
0.078634 0.0791605 0.0795745 0.0798846 0.0800998 0.0802288 0.0802808 0.0802661 0.0801968 
0.0800901 0.0799715 0.0798837 0.0798972 0.0801338 0.0807928 0.082198 0.0848261 0.0893301 
0.0964418 0.106826 0.120632 0.137157 0.155685 0.175495 0.195925 0.216413 0.23648 
0.255715 0.273762 0.290307 0.305071 0.317802 0.328275 0.336282 0.341639 0.344174 
0.343729 0.0764963 0.0774188 0.0781987 0.0788469 0.0793721 0.079784 0.0800914 0.0803032 
0.0804283 0.0804757 0.0804554 0.0803791 0.0802628 0.0801302 0.0800209 0.0800002 0.0801822 
0.0807545 0.0820266 0.0844601 0.0887027 0.0954977 0.105553 0.119154 0.135622 0.154211 
0.174177 0.19483 0.215586 0.235946 0.255486 0.273836 0.290675 0.305713 0.318693 
0.329382 0.337568 0.34306 0.345685 0.34528 0.0767093 0.0776332 0.0784136 0.0790612 
0.0795851 0.079995 0.0802995 0.080508 0.0806292 0.0806721 0.0806464 0.0805633 0.0804379 
0.0802923 0.0801629 0.0801105 0.0802414 0.0807324 0.081878 0.0841251 0.0881121 0.0945943 
0.104315 0.117681 0.134077 0.152718 0.172834 0.193708 0.214731 0.235386 0.255233 
0.27389 0.291026 0.306342 0.319574 0.330482 0.338849 0.34448 0.347196 0.346832 
0.0769238 0.0778492 0.0786299 0.0792771 0.0797996 0.0802073 0.0805091 0.0807142 0.0808314 
0.0808699 0.0808389 0.0807494 0.0806154 0.0804575 0.0803094 0.0802276 0.0803107 0.0807256 
0.0817511 0.0838199 0.0875573 0.0937319 0.103118 0.116211 0.132523 0.151207 0.171466 
0.192557 0.213848 0.234799 0.254955 0.273924 0.291359 0.306958 0.320445 0.331576 
0.340127 0.345899 0.348708 0.348385 0.0771398 0.0780666 0.0788477 0.0794944 0.0800154 
0.080421 0.0807199 0.0809216 0.081035 0.081069 0.0810329 0.0809371 0.080795 0.0806258 
0.0804602 0.0803511 0.0803896 0.0807332 0.081645 0.0835435 0.0870385 0.0929085 0.101956 
0.114754 0.130965 0.149678 0.170072 0.191379 0.212936 0.234185 0.254654 0.273936 
0.291676 0.30756 0.321306 0.332663 0.341402 0.347316 0.350219 0.349938 0.0773573 
0.0782854 0.079067 0.079713 0.0802327 0.080636 0.080932 0.0811303 0.0812397 0.0812694 
0.0812282 0.0811265 0.0809766 0.0807967 0.0806149 0.0804805 0.0804775 0.0807544 0.081559 
0.0832948 0.0865553 0.0921242 0.10083 0.113315 0.129402 0.148132 0.168653 0.190172 
0.211995 0.233544 0.254328 0.273927 0.291974 0.308148 0.322157 0.333743 0.342672 
0.348731 0.351731 0.351493 0.0775761 0.0785057 0.0792876 0.0799331 0.0804512 0.0808522 
0.0811453 0.0813402 0.0814457 0.081471 0.0814249 0.0813174 0.0811602 0.0809702 0.0807734 
0.0806153 0.0805738 0.0807882 0.0814919 0.0830726 0.0861067 0.091379 0.0997405 0.111898 
0.127837 0.146569 0.16721 0.188937 0.211026 0.232875 0.253976 0.273896 0.292255 
0.308722 0.322998 0.334817 0.343938 0.350145 0.353242 0.353048 0.0777964 0.0787274 
0.0795096 0.0801544 0.080671 0.0810697 0.0813599 0.0815512 0.0816528 0.0816738 0.0816229 
0.0815098 0.0813455 0.081146 0.0809352 0.0807551 0.0806778 0.0808337 0.0814426 0.0828755 
0.0856916 0.0906728 0.0986893 0.110506 0.126271 0.144991 0.165744 0.187675 0.210027 
0.232179 0.2536 0.273844 0.292518 0.309282 0.323828 0.335883 0.345201 0.351557 
0.354754 0.354604 0.078018 0.0789504 0.079733 0.0803771 0.0808921 0.0812884 0.0815756 
0.0817634 0.081861 0.0818777 0.081822 0.0817034 0.0815326 0.0813241 0.0811002 0.0808996 
0.0807891 0.0808903 0.0814101 0.0827024 0.085309 0.0900048 0.0976781 0.109145 0.124702 
0.143397 0.164254 0.186384 0.209001 0.231455 0.253199 0.273769 0.292763 0.309828 
0.324648 0.336943 0.346459 0.352968 0.356266 0.356161 0.078241 0.0791748 0.0799576 
0.080601 0.0811144 0.0815083 0.0817924 0.0819766 0.0820703 0.0820827 0.0820223 0.0818984 
0.0817211 0.0815042 0.0812681 0.0810484 0.0809071 0.080957 0.0813934 0.0825519 0.0849577 
0.0893739 0.0967078 0.107821 0.123132 0.14179 0.162742 0.185066 0.207945 0.230703 
0.252772 0.273673 0.29299 0.310359 0.325457 0.337995 0.347713 0.354377 0.357777 
0.35772 0.0784653 0.0794004 0.0801836 0.0808262 0.0813379 0.0817293 0.0820103 0.0821909 
0.0822807 0.0822887 0.0822237 0.0820946 0.0819112 0.0816862 0.0814387 0.0812012 0.0810314 
0.0810335 0.0813916 0.0824231 0.0846368 0.0887799 0.0957778 0.106533 0.121564 0.14017 
0.161209 0.183721 0.206861 0.229923 0.25232 0.273554 0.293198 0.310876 0.326256 
0.33904 0.348963 0.355784 0.359289 0.359279 0.0786908 0.0796274 0.0804107 0.0810526 
0.0815625 0.0819514 0.0822292 0.0824062 0.082492 0.0824957 0.0824261 0.0822919 0.0821026 
0.08187 0.0816118 0.0813578 0.0811615 0.081119 0.0814039 0.0823155 0.0843453 0.0882231 
0.094887 0.105278 0.120006 0.138541 0.159653 0.182348 0.205747 0.229115 0.251842 
0.273413 0.293387 0.311377 0.327043 0.340078 0.350209 0.35719 0.360801 0.360839 
0.0789176 0.0798555 0.0806391 0.0812801 0.0817882 0.0821746 0.0824492 0.0826225 0.0827042 
0.0827037 0.0826296 0.0824904 0.0822954 0.0820555 0.0817874 0.081518 0.081297 0.081213 
0.0814293 0.0822277 0.0840819 0.0877026 0.0940357 0.104058 0.118463 0.136904 0.158077 
0.180947 0.204604 0.228278 0.251337 0.273248 0.293557 0.311864 0.327819 0.341109 
0.351451 0.358594 0.362313 0.3624 0.0791456 0.0800849 0.0808687 0.0815088 0.0820151 
0.0823988 0.0826702 0.0828398 0.0829174 0.0829126 0.0828339 0.0826899 0.0824894 0.0822426 
0.081965 0.0816813 0.0814374 0.0813149 0.0814671 0.0821589 0.0838455 0.0872176 0.0932243 
0.102873 0.116938 0.135259 0.15648 0.17952 0.203432 0.227412 0.250806 0.273061 
0.293708 0.312336 0.328585 0.342131 0.352688 0.359996 0.363824 0.363961 0.0793749 
0.0803155 0.0810995 0.0817387 0.0822431 0.0826241 0.0828921 0.0830579 0.0831315 0.0831224 
0.0830392 0.0828904 0.0826845 0.0824312 0.0821447 0.0818477 0.0815824 0.0814242 0.0815162 
0.0821079 0.0836347 0.086767 0.0924525 0.101726 0.115436 0.133607 0.154863 0.178067 
0.202231 0.226518 0.250248 0.27285 0.293839 0.312792 0.329339 0.343147 0.353921 
0.361396 0.365336 0.365524 0.0796053 0.0805473 0.0813313 0.0819696 0.082472 0.0828503 
0.083115 0.083277 0.0833465 0.083333 0.0832454 0.0830919 0.0828807 0.0826211 0.0823263 
0.0820169 0.0817317 0.0815404 0.0815761 0.0820736 0.0834482 0.0863499 0.0917198 0.100618 
0.113962 0.131947 0.153227 0.176587 0.201001 0.225595 0.249664 0.272616 0.293951 
0.313233 0.330081 0.344154 0.355149 0.362794 0.366848 0.367088 0.0798369 0.0807802 
0.0815644 0.0822016 0.082702 0.0830775 0.0833388 0.0834969 0.0835623 0.0835445 0.0834524 
0.0832943 0.083078 0.0828124 0.0825096 0.0821887 0.0818849 0.0816628 0.0816459 0.0820552 
0.0832849 0.0859652 0.091025 0.0995517 0.112521 0.13028 0.151571 0.175082 0.199742 
0.224643 0.249053 0.272358 0.294043 0.313658 0.330812 0.345154 0.356373 0.364191 
0.36836 0.368653 0.0800696 0.0810142 0.0817985 0.0824347 0.0829331 0.0833057 0.0835634 
0.0837177 0.0837789 0.0837568 0.0836603 0.0834975 0.0832763 0.0830049 0.0826946 0.0823628 
0.0820418 0.0817911 0.081725 0.0820516 0.0831437 0.0856118 0.0903679 0.0985254 0.111117 
0.128607 0.149899 0.173552 0.198453 0.223662 0.248414 0.272077 0.294115 0.314068 
0.331531 0.346145 0.357592 0.365585 0.369871 0.370218 0.0803034 0.0812494 0.0820337 
0.0826687 0.083165 0.0835347 0.083789 0.0839393 0.0839963 0.0839698 0.0838689 0.0837016 
0.0834755 0.0831986 0.0828811 0.0825392 0.0822021 0.081925 0.0818129 0.0820621 0.083024 
0.0852889 0.089749 0.0975383 0.109743 0.12694 0.148212 0.171997 0.197135 0.222651 
0.247748 0.271771 0.294166 0.314461 0.332238 0.347129 0.358807 0.366978 0.371383 
0.371785 0.0805383 0.0814856 0.0822699 0.0829038 0.083398 0.0837647 0.0840153 0.0841617 
0.0842144 0.0841836 0.0840783 0.0839065 0.0836756 0.0833934 0.083069 0.0827177 0.0823656 
0.0820639 0.0819092 0.0820859 0.0829248 0.0849953 0.0891679 0.0965909 0.1084 0.12528 
0.146511 0.170417 0.195788 0.221611 0.247054 0.27144 0.294197 0.314838 0.332933 
0.348105 0.360016 0.368368 0.372895 0.373352 0.0807743 0.0817229 0.0825072 0.0831399 
0.0836318 0.0839955 0.0842425 0.0843848 0.0844333 0.0843982 0.0842884 0.0841122 0.0838766 
0.0835892 0.0832584 0.0828981 0.082532 0.0822075 0.0820131 0.0821219 0.0828449 0.0847297 
0.0886237 0.0956837 0.107091 0.123633 0.144797 0.168812 0.194412 0.220541 0.246333 
0.271085 0.294208 0.315198 0.333616 0.349072 0.361222 0.369757 0.374406 0.374921 
0.0810114 0.0819613 0.0827455 0.083377 0.0838666 0.0842272 0.0844705 0.0846087 0.0846529 
0.0846134 0.0844992 0.0843186 0.0840784 0.0837859 0.083449 0.0830803 0.0827013 0.0823554 
0.0821242 0.0821695 0.0827833 0.0844909 0.0881154 0.094817 0.105817 0.122002 0.14307 
0.167184 0.193007 0.219442 0.245583 0.270705 0.294197 0.315542 0.334286 0.350031 
0.362422 0.371143 0.375917 0.37649 0.0812495 0.0822007 0.0829848 0.083615 0.0841023 
0.0844597 0.0846993 0.0848334 0.0848732 0.0848293 0.0847107 0.0845257 0.084281 0.0839836 
0.0836408 0.0832641 0.082873 0.0825073 0.0822419 0.0822277 0.082739 0.0842776 0.0876421 
0.0939905 0.104581 0.120392 0.141331 0.165531 0.191573 0.218312 0.244805 0.2703 
0.294166 0.31587 0.334945 0.350981 0.363617 0.372528 0.377429 0.378061 0.0814887 
0.0824411 0.0832251 0.0838539 0.0843388 0.084693 0.0849288 0.0850587 0.0850942 0.0850458 
0.0849229 0.0847335 0.0844844 0.0841822 0.0838337 0.0834495 0.0830471 0.0826629 0.0823657 
0.0822958 0.0827108 0.0840885 0.0872028 0.0932034 0.103384 0.118808 0.139578 0.163854 
0.19011 0.217153 0.243999 0.269869 0.294113 0.31618 0.33559 0.351923 0.364807 
0.37391 0.37894 0.379632 0.0817288 0.0826825 0.0834663 0.0840938 0.0845762 0.0849272 
0.085159 0.0852847 0.0853158 0.085263 0.0851357 0.084942 0.0846885 0.0843816 0.0840277 
0.0836363 0.0832234 0.0828219 0.0824953 0.0823731 0.082698 0.0839224 0.0867964 0.0924546 
0.102228 0.117257 0.137811 0.162155 0.18862 0.215963 0.243164 0.269413 0.294039 
0.316473 0.336223 0.352857 0.365992 0.37529 0.380451 0.381204 0.08197 0.0829249 
0.0837085 0.0843346 0.0848145 0.0851621 0.08539 0.0855114 0.0855381 0.0854809 0.0853492 
0.0851511 0.0848933 0.0845818 0.0842227 0.0838244 0.0834017 0.0829841 0.0826302 0.0824592 
0.0826995 0.0837784 0.086422 0.0917447 0.101112 0.115737 0.136035 0.160434 0.187103 
0.214743 0.2423 0.268931 0.293942 0.316748 0.336843 0.353781 0.367172 0.376668 
0.381962 0.382777 0.0822122 0.0831682 0.0839517 0.0845762 0.0850535 0.0853977 0.0856217 
0.0857388 0.085761 0.0856993 0.0855632 0.0853608 0.0850988 0.0847828 0.0844187 0.0840139 
0.0835819 0.0831492 0.0827699 0.0825536 0.0827147 0.0836559 0.0860786 0.0910739 0.100035 
0.114246 0.134259 0.158694 0.185557 0.213493 0.241407 0.268423 0.293824 0.317006 
0.337449 0.354697 0.368347 0.378044 0.383473 0.384352 0.0824553 0.0834126 0.0841957 
0.0848187 0.0852934 0.0856341 0.0858541 0.0859668 0.0859845 0.0859183 0.0857779 0.0855712 
0.085305 0.0849846 0.0846155 0.0842045 0.0837639 0.0833171 0.0829143 0.0826556 0.0827427 
0.0835538 0.0857652 0.0904419 0.0989972 0.112784 0.132484 0.156935 0.183983 0.212212 
0.240485 0.267888 0.293684 0.317247 0.338043 0.355604 0.369517 0.379417 0.384984 
0.385927 0.0826994 0.0836578 0.0844407 0.085062 0.085534 0.0858712 0.0860871 0.0861954 
0.0862086 0.0861379 0.0859931 0.0857822 0.0855117 0.085187 0.0848132 0.0843963 0.0839475 
0.0834876 0.0830629 0.0827648 0.0827825 0.083471 0.0854804 0.0898479 0.0980004 0.111353 
0.130717 0.155158 0.182382 0.2109 0.239533 0.267327 0.293521 0.317469 0.338623 
0.356501 0.370681 0.380788 0.386494 0.387503 0.0829444 0.083904 0.0846865 0.0853062 
0.0857754 0.0861091 0.0863208 0.0864246 0.0864332 0.0863581 0.0862089 0.0859937 0.0857191 
0.0853902 0.0850118 0.0845892 0.0841326 0.0836605 0.0832153 0.0828807 0.0828334 0.0834064 
0.0852231 0.089291 0.0970446 0.109955 0.12896 0.153364 0.180752 0.209558 0.238551 
0.26674 0.293335 0.317673 0.33919 0.35739 0.37184 0.382157 0.388004 0.38908 
0.0831904 0.0841512 0.0849333 0.0855513 0.0860176 0.0863476 0.0865551 0.0866545 0.0866585 
0.0865788 0.0864252 0.0862058 0.0859272 0.085594 0.0852111 0.0847831 0.0843191 0.0838356 
0.0833713 0.0830027 0.0828946 0.083359 0.0849919 0.0887702 0.0961297 0.108593 0.127217 
0.151551 0.179095 0.208185 0.23754 0.266125 0.293126 0.317859 0.339743 0.358269 
0.372994 0.383523 0.389515 0.390658 0.0834373 0.0843992 0.0851809 0.0857971 0.0862606 
0.0865868 0.08679 0.0868849 0.0868843 0.0868 0.0866421 0.0864185 0.0861357 0.0857985 
0.0854112 0.0849779 0.0845069 0.0840127 0.0835306 0.0831304 0.0829653 0.0833277 0.0847854 
0.0882846 0.0952555 0.107269 0.125495 0.149718 0.17741 0.206782 0.236498 0.265483 
0.292895 0.318027 0.340282 0.359139 0.374141 0.384887 0.391025 0.392237 0.0836852 
0.0846482 0.0854294 0.0860437 0.0865042 0.0868267 0.0870256 0.0871158 0.0871106 0.0870218 
0.0868595 0.0866318 0.0863449 0.0860036 0.0856119 0.0851737 0.0846959 0.0841918 0.0836929 
0.0832634 0.0830449 0.0833117 0.0846024 0.0878332 0.0944207 0.105984 0.123797 0.147868 
0.175698 0.205349 0.235427 0.264814 0.292639 0.318176 0.340807 0.359999 0.375284 
0.386249 0.392534 0.393816 0.0839339 0.084898 0.0856787 0.0862912 0.0867486 0.0870672 
0.0872618 0.0873474 0.0873375 0.0872441 0.0870774 0.0868455 0.0865546 0.0862094 0.0858134 
0.0853703 0.0848861 0.0843726 0.0838579 0.0834013 0.0831328 0.0833099 0.0844418 0.0874149 
0.0936248 0.104739 0.122134 0.145995 0.173958 0.203886 0.234324 0.264117 0.292361 
0.318305 0.341318 0.36085 0.37642 0.387608 0.394044 0.395397 0.0841836 0.0851488 
0.0859289 0.0865394 0.0869937 0.0873084 0.0874985 0.0875795 0.0875649 0.087467 0.0872959 
0.0870598 0.0867649 0.0864157 0.0860156 0.0855677 0.0850773 0.084555 0.0840257 0.0835438 
0.0832285 0.0833217 0.0843031 0.0870289 0.0928688 0.103533 0.120495 0.144112 0.172194 
0.202394 0.233191 0.263392 0.292058 0.318416 0.341815 0.36169 0.377551 0.388964 
0.395553 0.396979 0.0844341 0.0854004 0.0861799 0.0867884 0.0872395 0.0875502 0.0877358 
0.0878121 0.0877928 0.0876903 0.0875148 0.0872746 0.0869757 0.0866226 0.0862184 0.085766 
0.0852696 0.0847389 0.0841959 0.0836905 0.0833316 0.0833463 0.0841852 0.0866742 0.0921531 
0.102366 0.118883 0.142222 0.170406 0.20087 0.232027 0.262639 0.291731 0.318508 
0.342297 0.362521 0.378676 0.390318 0.397062 0.398562 0.0846855 0.0856528 0.0864317 
0.0870381 0.087486 0.0877927 0.0879737 0.0880452 0.0880212 0.0879141 0.0877343 0.08749 
0.0871871 0.0868301 0.0864218 0.0859649 0.0854629 0.0849243 0.0843683 0.0838411 0.0834416 
0.0833828 0.0840872 0.0863496 0.091477 0.10124 0.117296 0.140329 0.168595 0.199316 
0.230831 0.261858 0.29138 0.31858 0.342765 0.363343 0.379795 0.391669 0.398571 
0.400145 0.0849379 0.0859062 0.0866843 0.0872886 0.0877332 0.0880357 0.0882122 0.0882789 
0.0882501 0.0881384 0.0879542 0.0877058 0.087399 0.0870382 0.0866259 0.0861647 0.0856571 
0.0851111 0.084543 0.0839953 0.083558 0.0834304 0.084008 0.086054 0.0908398 0.100154 
0.115739 0.138438 0.166761 0.197732 0.229604 0.261047 0.291004 0.318632 0.343218 
0.364154 0.380909 0.393018 0.400079 0.401729 0.085191 0.0861604 0.0869378 0.0875398 
0.087981 0.0882794 0.0884512 0.0885131 0.0884795 0.0883632 0.0881747 0.0879221 0.0876114 
0.0872468 0.0868306 0.0863651 0.0858523 0.085299 0.0847196 0.0841528 0.0836803 0.0834882 
0.0839465 0.085786 0.0902406 0.0991095 0.114212 0.136551 0.164904 0.196116 0.228346 
0.260208 0.290604 0.318664 0.343656 0.364954 0.382016 0.394364 0.401587 0.403315 
0.0854451 0.0864154 0.087192 0.0877917 0.0882295 0.0885236 0.0886908 0.0887478 0.0887093 
0.0885885 0.0883956 0.088139 0.0878244 0.087456 0.0870359 0.0865662 0.0860482 0.0854881 
0.084898 0.0843133 0.0838081 0.0835557 0.0839017 0.0855443 0.0896786 0.0981068 0.112718 
0.134672 0.163023 0.19447 0.227056 0.25934 0.290178 0.318676 0.344079 0.365745 
0.383117 0.395707 0.403095 0.404901 0.0857 0.0866713 0.087447 0.0880444 0.0884787 
0.0887685 0.0889308 0.0889829 0.0889397 0.0888142 0.088617 0.0883563 0.0880379 0.0876657 
0.0872418 0.0867679 0.086245 0.0856783 0.0850782 0.0844766 0.0839409 0.083632 0.0838726 
0.0853276 0.0891526 0.0971457 0.111261 0.132808 0.161118 0.192793 0.225734 0.258442 
0.289727 0.318668 0.344486 0.366525 0.384212 0.397048 0.404602 0.406488 0.0859558 
0.086928 0.0877028 0.0882978 0.0887285 0.0890139 0.0891714 0.0892186 0.0891705 0.0890404 
0.0888389 0.0885742 0.0882519 0.087876 0.0874483 0.0869702 0.0864426 0.0858694 0.0852599 
0.0846425 0.0840785 0.0837165 0.0838581 0.0851344 0.0886618 0.0962254 0.109841 0.130962 
0.159187 0.191084 0.224381 0.257514 0.289251 0.318639 0.344879 0.367295 0.385301 
0.398386 0.406109 0.408076 0.0862124 0.0871855 0.0879593 0.0885519 0.0889789 0.0892598 
0.0894125 0.0894547 0.0894018 0.0892671 0.0890613 0.0887925 0.0884664 0.0880868 0.0876553 
0.0871732 0.0866409 0.0860616 0.0854431 0.0848107 0.0842203 0.0838086 0.0838576 0.0849638 
0.0882052 0.0953449 0.108461 0.129141 0.157231 0.189344 0.222997 0.256557 0.288749 
0.31859 0.345256 0.368054 0.386383 0.399721 0.407616 0.409665 0.0864698 0.0874438 
0.0882167 0.0888066 0.0892299 0.0895064 0.0896541 0.0896914 0.0896335 0.0894942 0.0892841 
0.0890113 0.0886814 0.0882981 0.087863 0.0873768 0.0868399 0.0862546 0.0856277 0.0849812 
0.0843663 0.0839079 0.0838701 0.0848147 0.0877817 0.0945041 0.10712 0.12735 0.155248 
0.187574 0.221582 0.255569 0.288222 0.318519 0.345617 0.368802 0.387459 0.401053 
0.409122 0.411255 0.0867281 0.0877029 0.0884747 0.0890621 0.0894815 0.0897534 0.0898962 
0.0899284 0.0898657 0.0897218 0.0895074 0.0892306 0.088897 0.0885099 0.0880712 0.087581 
0.0870397 0.0864485 0.0858135 0.0851537 0.0845159 0.0840139 0.083895 0.0846865 0.0873906 
0.0937044 0.105817 0.125579 0.153251 0.185775 0.220134 0.254551 0.287668 0.318427 
0.345962 0.369539 0.388529 0.402382 0.410627 0.412846 0.0869872 0.0879629 0.0887335 
0.0893182 0.0897337 0.090001 0.0901388 0.090166 0.0900984 0.0899499 0.0897312 0.0894504 
0.089113 0.0887223 0.0882799 0.0877859 0.0872401 0.0866433 0.0860006 0.0853282 0.0846691 
0.0841263 0.0839315 0.0845783 0.0870308 0.0929459 0.104554 0.123832 0.151241 0.183949 
0.218655 0.253502 0.287087 0.318314 0.346291 0.370266 0.389592 0.403708 0.412133 
0.414437 0.0872471 0.0882236 0.0889931 0.089575 0.0899866 0.0902491 0.0903819 0.0904039 
0.0903315 0.0901784 0.0899554 0.0896707 0.0893296 0.0889353 0.0884892 0.0879913 0.0874411 
0.0868388 0.0861888 0.0855045 0.0848255 0.0842446 0.0839787 0.0844891 0.0867011 0.0922279 
0.103331 0.122107 0.149223 0.182095 0.217142 0.252421 0.286479 0.318179 0.346604 
0.370981 0.390648 0.405031 0.413637 0.41603 0.0875079 0.0884851 0.0892533 0.0898324 
0.09024 0.0904978 0.0906254 0.0906424 0.090565 0.0904073 0.0901801 0.0898915 0.0895467 
0.0891488 0.0886991 0.0881973 0.0876429 0.0870352 0.0863781 0.0856826 0.0849848 0.0843685 
0.0840361 0.0844178 0.0864002 0.0915497 0.102149 0.120409 0.147199 0.180213 0.215597 
0.25131 0.285845 0.318022 0.346901 0.371685 0.391698 0.406351 0.415142 0.417623 
0.0877694 0.0887473 0.0895143 0.0900905 0.0904939 0.0907469 0.0908694 0.0908812 0.090799 
0.0906367 0.0904053 0.0901128 0.0897643 0.0893628 0.0889095 0.0884039 0.0878452 0.0872324 
0.0865684 0.0858623 0.0851468 0.0844974 0.0841027 0.0843634 0.086127 0.0909105 0.10101 
0.118738 0.145173 0.178304 0.214019 0.250166 0.285183 0.317843 0.347181 0.372378 
0.392741 0.407668 0.416645 0.419217 0.0880317 0.0890103 0.0897759 0.0903492 0.0907484 
0.0909965 0.0911138 0.0911205 0.0910333 0.0908665 0.090631 0.0903345 0.0899824 0.0895774 
0.0891205 0.0886111 0.0880482 0.0874303 0.0867596 0.0860434 0.0853114 0.0846311 0.084178 
0.0843249 0.08588 0.0903094 0.099913 0.117099 0.143149 0.176365 0.212408 0.248991 
0.284493 0.317642 0.347445 0.37306 0.393777 0.408982 0.418149 0.420812 0.0882948 
0.0892741 0.0900383 0.0906085 0.0910034 0.0912466 0.0913587 0.0913602 0.0912681 0.0910968 
0.0908571 0.0905568 0.0902011 0.0897925 0.089332 0.0888188 0.0882518 0.0876289 0.0869517 
0.0862259 0.0854782 0.0847691 0.0842613 0.0843012 0.0856578 0.0897453 0.0988586 0.115493 
0.141131 0.174397 0.210762 0.247783 0.283776 0.317419 0.347691 0.37373 0.394807 
0.410293 0.419651 0.422407 0.0885586 0.0895386 0.0903013 0.0908683 0.091259 0.0914972 
0.091604 0.0916004 0.0915034 0.0913275 0.0910837 0.0907796 0.0904202 0.0900081 0.0895441 
0.0890272 0.088456 0.0878282 0.0871447 0.0864098 0.0856471 0.0849111 0.0843519 0.0842915 
0.0854593 0.0892173 0.0978463 0.113922 0.139124 0.172398 0.209082 0.246544 0.28303 
0.317173 0.347921 0.374388 0.395829 0.4116 0.421153 0.424003 0.0888232 0.0898038 
0.090565 0.0911288 0.0915151 0.0917482 0.0918497 0.0918409 0.091739 0.0915587 0.0913107 
0.0910028 0.0906399 0.0902243 0.0897568 0.0892361 0.0886608 0.0880282 0.0873385 0.0865948 
0.085818 0.0850568 0.0844493 0.084295 0.085283 0.0887244 0.0968753 0.11239 0.137134 
0.170367 0.207368 0.245273 0.282257 0.316904 0.348133 0.375035 0.396845 0.412905 
0.422655 0.4256 0.0890885 0.0900697 0.0908293 0.0913899 0.0917716 0.0919996 0.0920958 
0.0920818 0.0919751 0.0917903 0.0915382 0.0912266 0.0908601 0.0904411 0.08997 0.0894457 
0.0888662 0.0882288 0.0875331 0.0867811 0.0859907 0.0852061 0.0845531 0.0843108 0.0851279 
0.0882655 0.0959446 0.110897 0.135167 0.168303 0.20562 0.243971 0.281454 0.316612 
0.348328 0.37567 0.397853 0.414206 0.424156 0.427198 0.0893546 0.0903363 0.0910943 
0.0916515 0.0920287 0.0922515 0.0923423 0.0923231 0.0922115 0.0920223 0.0917662 0.0914509 
0.0910809 0.0906584 0.0901838 0.0896558 0.0890722 0.0884302 0.0877284 0.0869684 0.0861651 
0.0853585 0.0846629 0.0843383 0.0849933 0.0878397 0.0950549 0.109442 0.133224 0.166208 
0.203838 0.242636 0.280622 0.316297 0.348506 0.376293 0.398855 0.415503 0.425656 
0.428797 0.0896214 0.0906036 0.0913598 0.0919136 0.0922862 0.0925038 0.0925892 0.0925648 
0.0924484 0.0922547 0.0919947 0.0916756 0.0913021 0.0908763 0.0903982 0.0898665 0.0892789 
0.0886322 0.0879246 0.0871568 0.0863412 0.085514 0.0847784 0.0843768 0.0848783 0.0874463 
0.0942073 0.108026 0.131299 0.164091 0.202023 0.241268 0.279761 0.315958 0.348666 
0.376904 0.399849 0.416798 0.427155 0.430396 0.0898888 0.0908716 0.091626 0.0921762 
0.0925441 0.0927564 0.0928365 0.0928068 0.0926856 0.0924876 0.0922236 0.0919009 0.091524 
0.0910947 0.0906132 0.0900779 0.0894861 0.0888349 0.0881215 0.0873462 0.0865189 0.0856724 
0.0848992 0.0844257 0.0847823 0.087084 0.093402 0.106649 0.129393 0.161954 0.200177 
0.239866 0.27887 0.315595 0.348808 0.377502 0.400836 0.418089 0.428654 0.431995 
0.090157 0.0911401 0.0918927 0.0924393 0.0928025 0.0930095 0.0930841 0.0930493 0.0929232 
0.0927209 0.0924529 0.0921267 0.0917463 0.0913138 0.0908288 0.0902898 0.089694 0.0890382 
0.0883191 0.0875366 0.086698 0.0858333 0.085025 0.0844841 0.0847041 0.0867518 0.0926383 
0.105313 0.127507 0.159802 0.1983 0.238431 0.277949 0.315208 0.348931 0.378089 
0.401815 0.419376 0.430152 0.433596 0.0904258 0.0914093 0.0921599 0.0927029 0.0930613 
0.0932629 0.093332 0.093292 0.0931612 0.0929546 0.0926828 0.092353 0.0919693 0.0915334 
0.091045 0.0905024 0.0899026 0.0892422 0.0885175 0.087728 0.0868786 0.0859967 0.0851555 
0.0845515 0.0846428 0.0864484 0.0919157 0.104018 0.125643 0.157635 0.19639 0.236962 
0.276998 0.314797 0.349037 0.378663 0.402787 0.420661 0.431649 0.435197 0.0906952 
0.0916791 0.0924277 0.0929669 0.0933204 0.0935166 0.0935803 0.0935351 0.0933995 0.0931887 
0.0929131 0.0925798 0.0921927 0.0917536 0.0912617 0.0907156 0.0901118 0.0894469 0.0887167 
0.0879202 0.0870606 0.0861624 0.0852904 0.0846273 0.0845974 0.0861724 0.0912332 0.102767 
0.123803 0.155459 0.194447 0.235458 0.276016 0.314361 0.349124 0.379225 0.403752 
0.421941 0.433146 0.436798 0.0909652 0.0919494 0.092696 0.0932314 0.0935799 0.0937706 
0.0938288 0.0937785 0.0936382 0.0934232 0.0931438 0.0928071 0.0924168 0.0919743 0.0914792 
0.0909294 0.0903216 0.0896523 0.0889166 0.0881134 0.0872439 0.0863302 0.0854292 0.0847107 
0.084567 0.0859227 0.09059 0.101559 0.121991 0.153275 0.192471 0.233919 0.275003 
0.3139 0.349193 0.379774 0.404709 0.423218 0.434641 0.438401 0.0912358 0.0922203 
0.0929647 0.0934962 0.0938397 0.0940249 0.0940777 0.0940222 0.0938773 0.0936581 0.093375 
0.0930349 0.0926413 0.0921957 0.0916972 0.0911439 0.0905321 0.0898583 0.0891173 0.0883074 
0.0874283 0.0864999 0.0855718 0.0848013 0.0845505 0.0856978 0.0899851 0.100395 0.120208 
0.151088 0.190461 0.232345 0.273958 0.313414 0.349243 0.38031 0.405659 0.424492 
0.436136 0.440003 0.0915069 0.0924917 0.0932339 0.0937614 0.0940998 0.0942795 0.0943268 
0.0942661 0.0941167 0.0938934 0.0936067 0.0932632 0.0928665 0.0924177 0.0919158 0.091359 
0.0907433 0.090065 0.0893188 0.0885022 0.087614 0.0866714 0.0857178 0.0848985 0.0845473 
0.0854964 0.0894174 0.0992746 0.118458 0.148902 0.188414 0.230735 0.272882 0.312902 
0.349274 0.380834 0.406601 0.425762 0.43763 0.441606 0.0917786 0.0927635 0.0935034 
0.094027 0.0943602 0.0945343 0.0945761 0.0945104 0.0943563 0.0941291 0.0938388 0.093492 
0.0930922 0.0926402 0.0921351 0.0915747 0.0909552 0.0902724 0.089521 0.0886979 0.0878008 
0.0868446 0.0858671 0.0850017 0.0845563 0.0853171 0.0888858 0.0981978 0.116743 0.146722 
0.186331 0.229088 0.271775 0.312365 0.349287 0.381345 0.407536 0.427028 0.439123 
0.44321 0.0920508 0.0930358 0.0937734 0.0942928 0.0946208 0.0947893 0.0948256 0.0947548 
0.0945963 0.0943651 0.0940713 0.0937214 0.0933184 0.0928634 0.0923551 0.0917912 0.0911677 
0.0904806 0.0897239 0.0888944 0.0879888 0.0870194 0.0860195 0.0851106 0.084577 0.0851589 
0.0883895 0.0971635 0.115066 0.144554 0.184208 0.227403 0.270636 0.311802 0.34928 
0.381843 0.408463 0.428291 0.440615 0.444814 0.0923234 0.0933086 0.0940437 0.0945588 
0.0948816 0.0950445 0.0950753 0.0949995 0.0948366 0.0946015 0.0943043 0.0939512 0.0935453 
0.0930872 0.0925757 0.0920083 0.091381 0.0906894 0.0899277 0.0890918 0.0881778 0.0871958 
0.0861747 0.0852248 0.0846087 0.0850205 0.0879273 0.0961708 0.113427 0.142401 0.182047 
0.225681 0.269467 0.311213 0.349254 0.382327 0.409383 0.42955 0.442106 0.446418 
0.0925964 0.0935816 0.0943143 0.0948251 0.0951426 0.0952998 0.0953252 0.0952444 0.0950771 
0.0948382 0.0945377 0.0941815 0.0937726 0.0933116 0.092797 0.0922261 0.091595 0.090899 
0.0901322 0.08929 0.088368 0.0873737 0.0863327 0.085344 0.0846506 0.0849011 0.0874982 
0.0952196 0.111828 0.140274 0.179842 0.223922 0.268265 0.310598 0.349209 0.382799 
0.410294 0.430806 0.443596 0.448023 0.0928698 0.0938551 0.0945851 0.0950916 0.0954037 
0.0955553 0.0955752 0.0954895 0.0953179 0.0950753 0.0947715 0.0944123 0.0940006 0.0935366 
0.0930189 0.0924446 0.0918097 0.0911094 0.0903376 0.0894891 0.0885592 0.0875531 0.0864932 
0.0854679 0.0847024 0.0848002 0.0871015 0.0943116 0.110267 0.13816 0.177607 0.222127 
0.26703 0.309955 0.349144 0.383258 0.411198 0.432057 0.445085 0.449628 0.0931436 
0.0941288 0.0948561 0.0953582 0.0956648 0.0958108 0.0958253 0.0957347 0.0955589 0.0953127 
0.0950057 0.0946436 0.0942291 0.0937622 0.0932415 0.0926639 0.0920253 0.0913205 0.0905438 
0.0896891 0.0887516 0.087734 0.0866563 0.0855965 0.0847633 0.084717 0.0867362 0.0934473 
0.108745 0.13606 0.175343 0.220297 0.265762 0.309285 0.349059 0.383703 0.412094 
0.433305 0.446573 0.451233 0.0934176 0.0944027 0.0951274 0.0956249 0.0959261 0.0960663 
0.0960754 0.0959801 0.0958001 0.0955504 0.0952403 0.0948754 0.0944581 0.0939885 0.0934648 
0.0928838 0.0922415 0.0915325 0.0907508 0.08989 0.088945 0.0879163 0.0868217 0.0857293 
0.084833 0.0846507 0.086401 0.0926265 0.107265 0.133976 0.173052 0.218431 0.26446 
0.308588 0.348954 0.384134 0.412982 0.434549 0.44806 0.452839 0.0936919 0.0946768 
0.0953987 0.0958917 0.0961873 0.0963218 0.0963256 0.0962255 0.0960415 0.0957883 0.0954753 
0.0951077 0.0946878 0.0942154 0.0936888 0.0931046 0.0924586 0.0917453 0.0909588 0.0900919 
0.0891395 0.0881001 0.0869893 0.0858663 0.0849107 0.0846005 0.0860948 0.0918485 0.105826 
0.131908 0.170738 0.216529 0.263124 0.307862 0.348829 0.384553 0.413863 0.43579 
0.449545 0.454444 0.0939664 0.0949511 0.0956701 0.0961584 0.0964485 0.0965773 0.0965757 
0.096471 0.0962831 0.0960265 0.0957106 0.0953404 0.0949179 0.0944429 0.0939134 0.093326 
0.0926765 0.091959 0.0911676 0.0902948 0.0893352 0.0882853 0.0871592 0.0860072 0.0849961 
0.0845653 0.0858164 0.0911126 0.104431 0.129859 0.168403 0.214591 0.261754 0.307109 
0.348683 0.384957 0.414735 0.437026 0.45103 0.45605 0.094241 0.0952255 0.0959415 
0.0964251 0.0967095 0.0968327 0.0968258 0.0967165 0.0965247 0.096265 0.0959463 0.0955735 
0.0951486 0.094671 0.0941388 0.0935483 0.0928952 0.0921735 0.0913774 0.0904986 0.0895319 
0.088472 0.0873311 0.0861517 0.0850885 0.0845443 0.0855645 0.0904178 0.103081 0.127832 
0.166049 0.212615 0.260348 0.306326 0.348516 0.385348 0.415599 0.438259 0.452513 
0.457655 0.0945157 0.0954998 0.0962128 0.0966917 0.0969704 0.0970879 0.0970758 0.096962 
0.0967665 0.0965037 0.0961823 0.0958071 0.0953799 0.0948998 0.0943649 0.0937713 0.0931147 
0.0923889 0.0915881 0.0907036 0.0897298 0.08866 0.0875049 0.0862998 0.0851876 0.0845368 
0.0853378 0.0897633 0.101776 0.12583 0.16368 0.2106 0.258906 0.305515 0.348329 
0.385725 0.416456 0.439488 0.453995 0.459261 0.0947904 0.0957742 0.0964841 0.096958 
0.0972311 0.0973429 0.0973257 0.0972075 0.0970084 0.0967425 0.0964186 0.0960411 0.0956116 
0.0951292 0.0945917 0.0939951 0.0933351 0.0926053 0.0917998 0.0909095 0.0899289 0.0888495 
0.0876807 0.0864511 0.0852928 0.0845418 0.085135 0.0891479 0.100517 0.123854 0.161298 
0.208545 0.257428 0.304674 0.348121 0.386089 0.417304 0.440713 0.455476 0.460867 
0.0950651 0.0960485 0.0967551 0.0972242 0.0974916 0.0975977 0.0975754 0.0974529 0.0972502 
0.0969815 0.0966552 0.0962755 0.0958439 0.0953592 0.0948191 0.0942197 0.0935564 0.0928226 
0.0920125 0.0911166 0.0901291 0.0890404 0.0878584 0.0866056 0.0854038 0.0845586 0.0849548 
0.0885706 0.0993047 0.121909 0.158907 0.206449 0.255912 0.303805 0.347891 0.386439 
0.418145 0.441934 0.456955 0.462472 0.0953397 0.0963226 0.097026 0.09749 0.0977517 
0.0978522 0.0978248 0.0976981 0.0974921 0.0972207 0.0968921 0.0965103 0.0960767 0.0955898 
0.0950473 0.0944451 0.0937785 0.0930409 0.0922262 0.0913248 0.0903305 0.0892328 0.0880379 
0.0867631 0.0855201 0.0845865 0.084796 0.0880304 0.0981381 0.119996 0.156512 0.20431 
0.254358 0.302905 0.34764 0.386774 0.418978 0.443152 0.458433 0.464077 0.0956142 
0.0965964 0.0972965 0.0977555 0.0980114 0.0981063 0.098074 0.0979432 0.0977339 0.0974599 
0.0971292 0.0967455 0.0963099 0.095821 0.0952763 0.0946713 0.0940016 0.0932602 0.092441 
0.0915342 0.0905331 0.0894267 0.0882191 0.0869235 0.0856414 0.084625 0.0846572 0.087526 
0.097017 0.11812 0.154118 0.202126 0.252766 0.301976 0.347368 0.387097 0.419802 
0.444365 0.45991 0.465682 0.0958884 0.09687 0.0975667 0.0980205 0.0982707 0.09836 
0.0983228 0.0981881 0.0979757 0.0976992 0.0973665 0.096981 0.0965436 0.0960528 0.0955059 
0.0948984 0.0942255 0.0934805 0.0926569 0.0917447 0.090737 0.089622 0.0884022 0.0870867 
0.0857675 0.0846734 0.0845374 0.0870565 0.0959406 0.116281 0.151731 0.199895 0.251134 
0.301017 0.347073 0.387405 0.420619 0.445575 0.461385 0.467287 0.0961623 0.0971432 
0.0978364 0.098285 0.0985294 0.0986132 0.0985712 0.0984327 0.0982173 0.0979386 0.097604 
0.0972168 0.0967778 0.0962852 0.0957362 0.0951262 0.0944504 0.0937019 0.0928739 0.0919565 
0.0909423 0.0898189 0.0885871 0.0872527 0.0858981 0.0847312 0.0844356 0.0866208 0.0949077 
0.114482 0.149353 0.197617 0.249462 0.300028 0.346757 0.387699 0.421428 0.446781 
0.462859 0.468891 0.0964358 0.097416 0.0981056 0.098549 0.0987875 0.0988658 0.0988192 
0.0986769 0.0984588 0.0981779 0.0978416 0.097453 0.0970125 0.0965182 0.0959672 0.0953549 
0.0946763 0.0939243 0.0930921 0.0921696 0.0911489 0.0900173 0.0887738 0.0874215 0.0860331 
0.0847981 0.0843511 0.0862179 0.0939183 0.112723 0.146994 0.195286 0.24775 0.29901 
0.346418 0.387979 0.422229 0.447984 0.464331 0.470494 0.0967089 0.0976882 0.0983742 
0.0988122 0.099045 0.0991178 0.0990667 0.0989208 0.0987 0.0984172 0.0980793 0.0976894 
0.0972475 0.0967517 0.096199 0.0955845 0.0949031 0.0941478 0.0933115 0.0923841 0.0913569 
0.0902174 0.0889624 0.0875929 0.0861725 0.0848736 0.0842832 0.085847 0.0929736 0.111004 
0.144647 0.192913 0.245999 0.29796 0.346057 0.388245 0.423021 0.449182 0.465802 
0.472097 0.0969814 0.0979599 0.098642 0.0990747 0.0993017 0.0993692 0.0993135 0.0991643 
0.098941 0.0986563 0.0983171 0.097926 0.0974829 0.0969858 0.0964314 0.0958149 0.095131 
0.0943725 0.0935322 0.0925999 0.0915665 0.0904192 0.0891529 0.0877671 0.086316 0.0849573 
0.0842315 0.0855071 0.0920747 0.109327 0.14231 0.190499 0.244209 0.296878 0.345673 
0.388497 0.423806 0.450377 0.467271 0.473699 0.0972533 0.0982308 0.0989092 0.0993364 
0.0995576 0.0996197 0.0995598 0.0994072 0.0991816 0.0988953 0.0985549 0.0981628 0.0977188 
0.0972204 0.0966645 0.0960461 0.0953598 0.0945983 0.0937541 0.0928171 0.0917776 0.0906227 
0.0893455 0.0879439 0.0864637 0.0850488 0.0841953 0.0851972 0.0912215 0.107692 0.139983 
0.188048 0.242379 0.295763 0.345265 0.388734 0.424583 0.451568 0.468738 0.475301 
0.0975245 0.098501 0.0991754 0.0995972 0.0998126 0.0998695 0.0998053 0.0996496 0.0994219 
0.0991342 0.0987928 0.0983998 0.0979549 0.0974556 0.0968983 0.0962782 0.0955896 0.0948252 
0.0939774 0.0930358 0.0919903 0.090828 0.0895401 0.0881235 0.0866155 0.0851479 0.084174 
0.0849161 0.0904135 0.106101 0.137668 0.185562 0.24051 0.294616 0.344834 0.388957 
0.425352 0.452755 0.470204 0.476901 0.0977949 0.0987703 0.0994407 0.099857 0.100067 
0.100118 0.10005 0.0998914 0.0996617 0.0993728 0.0990305 0.0986369 0.0981913 0.0976911 
0.0971328 0.0965111 0.0958205 0.0950534 0.094202 0.093256 0.0922047 0.0910351 0.0897369 
0.0883057 0.0867712 0.085254 0.0841667 0.0846626 0.0896501 0.104556 0.135366 0.183042 
0.2386 0.293435 0.344379 0.389166 0.426114 0.453939 0.471668 0.478501 0.0980645 
0.0990386 0.099705 0.100116 0.100319 0.100366 0.100294 0.100133 0.0999011 0.099611 
0.0992682 0.0988741 0.098428 0.0979272 0.0973679 0.0967449 0.0960523 0.0952827 0.094428 
0.0934777 0.0924208 0.0912442 0.0899358 0.0884906 0.0869308 0.085367 0.0841728 0.0844355 
0.0889303 0.103058 0.13308 0.18049 0.236648 0.29222 0.3439 0.38936 0.426867 
0.455119 0.47313 0.480099 0.098333 0.0993059 0.0999682 0.100373 0.100571 0.100613 
0.100537 0.100373 0.10014 0.0998489 0.0995057 0.0991113 0.098665 0.0981637 0.0976037 
0.0969795 0.0962853 0.0955133 0.0946554 0.0937011 0.0926387 0.0914552 0.0901371 0.0886783 
0.0870944 0.0854865 0.0841917 0.0842337 0.0882533 0.101608 0.130812 0.177908 0.234654 
0.29097 0.343396 0.38954 0.427613 0.456295 0.47459 0.481696 0.0986005 0.099572 
0.10023 0.100629 0.100822 0.100858 0.100779 0.100612 0.100378 0.100086 0.0997429 
0.0993485 0.0989021 0.0984006 0.0978401 0.0972149 0.0965192 0.0957451 0.0948843 0.0939261 
0.0928585 0.0916682 0.0903406 0.0888686 0.0872617 0.0856121 0.0842225 0.0840559 0.087618 
0.100207 0.128566 0.175298 0.232615 0.289685 0.342868 0.389705 0.428351 0.457468 
0.476049 0.483291 0.0988669 0.0998369 0.100491 0.100884 0.101071 0.101103 0.10102 
0.100851 0.100615 0.100323 0.0999799 0.0995856 0.0991394 0.0986378 0.098077 0.0974511 
0.0967542 0.0959782 0.0951147 0.0941528 0.0930802 0.0918834 0.0905465 0.0890617 0.0874327 
0.0857437 0.0842648 0.0839009 0.0870232 0.0988571 0.126346 0.172664 0.23053 0.288364 
0.342315 0.389855 0.429082 0.458637 0.477505 0.484885 0.0991319 0.100101 0.10075 
0.101138 0.101319 0.101346 0.101259 0.101089 0.100852 0.10056 0.100217 0.0998227 
0.0993768 0.0988754 0.0983146 0.0976881 0.0969903 0.0962126 0.0953467 0.0943812 0.0933039 
0.0921007 0.0907549 0.0892576 0.0876076 0.085881 0.084318 0.0837675 0.0864678 0.0975576 
0.124153 0.170008 0.228397 0.287005 0.341737 0.389991 0.429805 0.459802 0.478959 
0.486477 0.0993957 0.100363 0.101007 0.10139 0.101565 0.101587 0.101498 0.101325 
0.101088 0.100796 0.100453 0.10006 0.0996143 0.0991133 0.0985526 0.0979259 0.0972274 
0.0964482 0.0955801 0.0946113 0.0935296 0.0923201 0.0909658 0.0894562 0.0877861 0.0860237 
0.0843816 0.0836546 0.0859506 0.0963089 0.121991 0.167335 0.226215 0.285608 0.341134 
0.390113 0.430522 0.460964 0.480412 0.488068 0.0996579 0.100623 0.101264 0.10164 
0.101809 0.101827 0.101735 0.101561 0.101323 0.101031 0.100689 0.100296 0.0998518 
0.0993514 0.0987912 0.0981645 0.0974655 0.0966852 0.0958152 0.0948433 0.0937574 0.0925419 
0.0911793 0.0896578 0.0879684 0.0861716 0.0844551 0.083561 0.0854704 0.0951107 0.119864 
0.164648 0.22398 0.284172 0.340505 0.390219 0.431231 0.462123 0.481862 0.489656 
0.0999187 0.100882 0.101518 0.101888 0.102052 0.102066 0.101971 0.101795 0.101557 
0.101265 0.100924 0.100532 0.100089 0.0995898 0.0990302 0.0984038 0.0977046 0.0969234 
0.0960518 0.0950772 0.0939873 0.092766 0.0913956 0.0898623 0.0881546 0.0863247 0.0845381 
0.0834857 0.0850261 0.0939625 0.117774 0.161952 0.221691 0.282696 0.33985 0.390311 
0.431933 0.463279 0.483309 0.491242 0.100178 0.101139 0.10177 0.102135 0.102293 
0.102303 0.102205 0.102028 0.10179 0.101499 0.101159 0.100768 0.100326 0.0998282 
0.0992697 0.0986438 0.0979448 0.0971629 0.0962901 0.0953129 0.0942195 0.0929926 0.0916146 
0.0900698 0.0883445 0.0864829 0.0846304 0.0834276 0.0846166 0.0928633 0.115725 0.159253 
0.219344 0.281179 0.33917 0.390389 0.432628 0.464431 0.484755 0.492825 0.100435 
0.101395 0.102021 0.102379 0.102532 0.102538 0.102437 0.10226 0.102022 0.101732 
0.101393 0.101004 0.100564 0.100067 0.0995095 0.0988844 0.0981859 0.0974037 0.0965299 
0.0955505 0.0944539 0.0932216 0.0918365 0.0902804 0.0885384 0.0866461 0.0847317 0.0833859 
0.0842408 0.0918121 0.113718 0.156557 0.216937 0.27962 0.338465 0.390451 0.433317 
0.46558 0.486198 0.494406 0.10069 0.101648 0.102269 0.102622 0.102769 0.102771 
0.102668 0.10249 0.102252 0.101963 0.101626 0.101239 0.1008 0.100305 0.0997497 
0.0991258 0.0984281 0.0976459 0.0967715 0.0957901 0.0946907 0.0934533 0.0920615 0.0904943 
0.0887364 0.0868142 0.0848418 0.0833599 0.0838977 0.0908077 0.111756 0.153865 0.214471 
0.278019 0.337733 0.390499 0.433999 0.466726 0.487638 0.495984 0.100944 0.101899 
0.102516 0.102862 0.103004 0.103002 0.102897 0.102718 0.102481 0.102194 0.101858 
0.101473 0.101037 0.100544 0.0999901 0.0993677 0.0986712 0.0978893 0.0970147 0.0960317 
0.0949298 0.0936876 0.0922895 0.0907115 0.0889384 0.0869875 0.0849604 0.0833492 0.0835865 
0.0898502 0.109839 0.15119 0.211937 0.276374 0.336976 0.390532 0.434675 0.467869 
0.489076 0.497558 0.101195 0.102149 0.10276 0.1031 0.103237 0.103231 0.103124 
0.102945 0.102709 0.102423 0.10209 0.101707 0.101273 0.100782 0.100231 0.0996102 
0.0989152 0.098134 0.0972596 0.0962754 0.0951714 0.0939247 0.0925207 0.0909323 0.0891447 
0.0871658 0.0850875 0.0833535 0.0833065 0.0889412 0.107967 0.148519 0.209349 0.274687 
0.336191 0.390549 0.435344 0.469008 0.490511 0.499129 0.101445 0.102395 0.103001 
0.103336 0.103467 0.103458 0.10335 0.10317 0.102935 0.102651 0.10232 0.10194 
0.101509 0.101021 0.100472 0.0998532 0.09916 0.0983799 0.0975062 0.096521 0.0954155 
0.0941646 0.0927552 0.0911566 0.0893554 0.0873495 0.085223 0.0833724 0.0830566 0.0880815 
0.106143 0.145853 0.206706 0.272958 0.335378 0.390552 0.436007 0.470145 0.491943 
0.500696 0.101692 0.10264 0.103241 0.103569 0.103695 0.103682 0.103573 0.103394 
0.10316 0.102878 0.102549 0.102172 0.101744 0.101259 0.100713 0.100097 0.0994058 
0.0986271 0.0977544 0.0967688 0.0956621 0.0944074 0.0929932 0.0913846 0.0895706 0.0875385 
0.0853668 0.0834056 0.082836 0.0872711 0.104368 0.143194 0.20401 0.271184 0.334536 
0.390539 0.436664 0.471279 0.493372 0.502259 0.101936 0.102882 0.103477 0.103799 
0.103921 0.103905 0.103794 0.103615 0.103383 0.103103 0.102778 0.102403 0.101979 
0.101496 0.100954 0.10034 0.0996523 0.0988755 0.0980043 0.0970186 0.0959113 0.0946532 
0.0932346 0.0916166 0.0897904 0.0877329 0.0855187 0.0834527 0.0826435 0.0865094 0.102643 
0.140541 0.201263 0.269366 0.333666 0.390511 0.437315 0.47241 0.494798 0.503818 
0.102179 0.103122 0.103711 0.104027 0.104144 0.104124 0.104012 0.103834 0.103604 
0.103327 0.103004 0.102634 0.102212 0.101734 0.101195 0.100585 0.0998996 0.0991251 
0.0982558 0.0972706 0.0961631 0.0949021 0.0934796 0.0918526 0.0900149 0.087933 0.0856788 
0.0835132 0.0824783 0.0857957 0.100971 0.137897 0.198466 0.267503 0.332766 0.390467 
0.437961 0.473538 0.49622 0.505371 0.102418 0.103358 0.103943 0.104252 0.104364 
0.104342 0.104229 0.104051 0.103823 0.103549 0.10323 0.102863 0.102445 0.101971 
0.101435 0.100829 0.100148 0.0993758 0.098509 0.0975247 0.0964175 0.0951541 0.0937283 
0.0920926 0.0902443 0.0881387 0.0858469 0.0835869 0.0823392 0.0851288 0.099354 0.135265 
0.19562 0.265592 0.331836 0.390408 0.438601 0.474664 0.497638 0.506919 0.102655 
0.103593 0.104171 0.104474 0.104581 0.104556 0.104443 0.104266 0.104041 0.103769 
0.103454 0.103091 0.102677 0.102207 0.101676 0.101074 0.100396 0.0996276 0.0987638 
0.0977808 0.0966747 0.0954092 0.0939808 0.092337 0.0904787 0.0883502 0.0860231 0.0836732 
0.0822253 0.0845078 0.097793 0.132648 0.192726 0.263631 0.330875 0.390334 0.439236 
0.475787 0.499053 0.508462 0.10289 0.103824 0.104396 0.104693 0.104796 0.104768 
0.104654 0.104479 0.104256 0.103988 0.103676 0.103317 0.102908 0.102443 0.101916 
0.101318 0.100645 0.0998804 0.0990202 0.0980391 0.0969345 0.0956676 0.0942372 0.0925857 
0.0907182 0.0885676 0.0862072 0.0837719 0.0821355 0.0839315 0.0962897 0.130049 0.189786 
0.26162 0.329883 0.390244 0.439866 0.476908 0.500463 0.509998 0.103121 0.104052 
0.104619 0.104909 0.105007 0.104977 0.104863 0.104689 0.104469 0.104204 0.103897 
0.103542 0.103138 0.102677 0.102156 0.101563 0.100895 0.100134 0.0992781 0.0982994 
0.097197 0.0959292 0.0944975 0.0928389 0.090963 0.088791 0.0863992 0.0838825 0.082069 
0.0833986 0.0948454 0.127473 0.186802 0.259555 0.328859 0.390139 0.440491 0.478026 
0.501869 0.511527 0.10335 0.104277 0.104838 0.105122 0.105215 0.105183 0.105069 
0.104897 0.10468 0.104419 0.104116 0.103766 0.103367 0.102911 0.102396 0.101808 
0.101145 0.100389 0.0995374 0.0985618 0.0974623 0.0961942 0.0947618 0.0930966 0.0912131 
0.0890206 0.0865993 0.0840049 0.0820248 0.0829078 0.093461 0.124922 0.183776 0.257435 
0.327802 0.390018 0.441112 0.479142 0.50327 0.513049 0.103575 0.104499 0.105054 
0.105332 0.10542 0.105386 0.105272 0.105102 0.104888 0.104631 0.104333 0.103988 
0.103594 0.103144 0.102634 0.102052 0.101395 0.100644 0.0997982 0.0988262 0.0977302 
0.0964625 0.0950302 0.0933591 0.0914688 0.0892565 0.0868073 0.0841387 0.082002 0.0824579 
0.0921371 0.122402 0.180712 0.255256 0.326712 0.389882 0.441729 0.480256 0.504666 
0.514562 0.103798 0.104718 0.105266 0.105538 0.105622 0.105586 0.105473 0.105305 
0.105094 0.104841 0.104548 0.104208 0.10382 0.103376 0.102872 0.102296 0.101646 
0.100901 0.10006 0.0990925 0.0980009 0.0967341 0.0953028 0.0936264 0.0917302 0.0894988 
0.0870234 0.0842839 0.0819997 0.0820474 0.090874 0.119916 0.177613 0.253016 0.325586 
0.389731 0.442343 0.481367 0.506056 0.516067 0.104017 0.104934 0.105475 0.10574 
0.10582 0.105782 0.10567 0.105505 0.105297 0.105049 0.10476 0.104426 0.104045 
0.103606 0.10311 0.10254 0.101897 0.101158 0.100324 0.0993608 0.0982742 0.0970091 
0.0955796 0.0938985 0.0919973 0.0897476 0.0872477 0.0844402 0.0820173 0.0816752 0.0896715 
0.117467 0.174483 0.250711 0.324426 0.389566 0.442952 0.482476 0.50744 0.517563 
0.104233 0.105146 0.105681 0.10594 0.106015 0.105976 0.105864 0.105701 0.105498 
0.105254 0.104971 0.104643 0.104267 0.103836 0.103346 0.102783 0.102147 0.101415 
0.100588 0.099631 0.0985501 0.0972875 0.0958606 0.0941757 0.0922704 0.0900033 0.0874802 
0.0846076 0.0820538 0.0813399 0.088529 0.115061 0.171328 0.248339 0.323229 0.389386 
0.443559 0.483583 0.508818 0.519048 0.104446 0.105355 0.105883 0.106135 0.106207 
0.106166 0.106055 0.105895 0.105695 0.105457 0.105179 0.104857 0.104488 0.104063 
0.103581 0.103026 0.102398 0.101673 0.100854 0.0999029 0.0988286 0.0975692 0.0961459 
0.094458 0.0925497 0.0902659 0.0877212 0.0847862 0.0821087 0.0810405 0.0874458 0.1127 
0.168153 0.245894 0.321994 0.389191 0.444162 0.484688 0.510188 0.520521 0.104655 
0.10556 0.106081 0.106327 0.106395 0.106353 0.106243 0.106086 0.10589 0.105657 
0.105385 0.105069 0.104707 0.104289 0.103815 0.103268 0.102648 0.101931 0.101121 
0.100177 0.0991097 0.0978543 0.0964356 0.0947454 0.0928352 0.0905356 0.0879707 0.0849759 
0.0821815 0.0807759 0.0864204 0.110388 0.164965 0.243375 0.320721 0.388983 0.444763 
0.48579 0.51155 0.521983 0.104861 0.105761 0.106276 0.106515 0.106579 0.106536 
0.106428 0.106274 0.106082 0.105854 0.105588 0.105278 0.104924 0.104514 0.104047 
0.103509 0.102898 0.10219 0.101388 0.100452 0.0993933 0.0981427 0.0967297 0.0950381 
0.0931271 0.0908126 0.0882292 0.0851769 0.0822717 0.0805452 0.0854515 0.108129 0.161771 
0.240776 0.319409 0.388762 0.445362 0.48689 0.512904 0.523431 0.105064 0.105959 
0.106467 0.106699 0.106759 0.106715 0.106609 0.106458 0.106271 0.106048 0.105788 
0.105485 0.105138 0.104736 0.104278 0.103749 0.103147 0.102448 0.101657 0.100728 
0.0996792 0.0984344 0.0970281 0.0953361 0.0934256 0.0910972 0.0884968 0.0853893 0.0823792 
0.0803475 0.0845376 0.105925 0.158574 0.238097 0.318057 0.388529 0.445958 0.487988 
0.514248 0.524864 0.105263 0.106154 0.106654 0.10688 0.106936 0.106891 0.106786 
0.106639 0.106457 0.106239 0.105986 0.10569 0.10535 0.104957 0.104508 0.103987 
0.103396 0.102706 0.101926 0.101007 0.0999674 0.0987293 0.0973309 0.0956395 0.0937309 
0.0913895 0.0887739 0.0856132 0.082504 0.0801821 0.0836781 0.103779 0.155383 0.235333 
0.316665 0.388282 0.446553 0.489082 0.515581 0.526281 0.105458 0.106344 0.106836 
0.107056 0.107109 0.107063 0.106961 0.106817 0.10664 0.106428 0.10618 0.105892 
0.10556 0.105175 0.104735 0.104224 0.103644 0.102964 0.102195 0.101286 0.100258 
0.0990274 0.097638 0.0959483 0.094043 0.0916897 0.0890608 0.085849 0.0826463 0.0800485 
0.0828735 0.101691 0.152205 0.232481 0.315232 0.388024 0.447147 0.490173 0.516902 
0.52768 0.10565 0.10653 0.107015 0.107228 0.107277 0.107232 0.107131 0.106991 
0.106819 0.106613 0.106372 0.106091 0.105767 0.105391 0.104961 0.10446 0.10389 
0.103222 0.102464 0.101566 0.10055 0.0993285 0.0979495 0.0962626 0.0943622 0.0919981 
0.0893579 0.0860969 0.0828064 0.0799462 0.0821255 0.0996629 0.149028 0.229552 0.31376 
0.387753 0.44774 0.491261 0.518211 0.52906 0.105838 0.106713 0.10719 0.107396 
0.107442 0.107396 0.107298 0.107162 0.106994 0.106794 0.106561 0.106287 0.105972 
0.105604 0.105185 0.104694 0.104136 0.103479 0.102734 0.101847 0.100845 0.0996325 
0.0982653 0.0965823 0.0946886 0.0923148 0.0896655 0.0863572 0.0829848 0.0798745 0.081435 
0.0976977 0.145858 0.226545 0.312247 0.387469 0.448332 0.492345 0.519505 0.530419 
0.106022 0.106892 0.107361 0.10756 0.107603 0.107557 0.107461 0.107329 0.107167 
0.106973 0.106746 0.10648 0.106173 0.105815 0.105406 0.104926 0.10438 0.103735 
0.103004 0.10213 0.101141 0.0999394 0.0985853 0.0969075 0.0950223 0.09264 0.0899842 
0.08663 0.0831819 0.0798329 0.0808022 0.0957967 0.142693 0.223462 0.310694 0.387174 
0.448924 0.493424 0.520783 0.531754 0.106203 0.107067 0.107527 0.10772 0.10776 
0.107714 0.10762 0.107492 0.107335 0.107147 0.106928 0.10667 0.106372 0.106023 
0.105625 0.105156 0.104623 0.103991 0.103273 0.102412 0.101438 0.100249 0.0989094 
0.0972381 0.0953633 0.0929739 0.0903142 0.0869158 0.0833979 0.0798207 0.0802267 0.0939622 
0.139536 0.220304 0.3091 0.386867 0.449516 0.494498 0.522043 0.533065 0.106379 
0.107237 0.10769 0.107876 0.107912 0.107867 0.107776 0.107652 0.1075 0.107319 
0.107106 0.106856 0.106567 0.106229 0.105841 0.105384 0.104863 0.104245 0.103542 
0.102695 0.101737 0.100561 0.0992375 0.097574 0.0957117 0.0933166 0.0906558 0.0872147 
0.0836333 0.0798372 0.0797081 0.0921962 0.136392 0.217072 0.307465 0.386549 0.45011 
0.495566 0.523284 0.534347 0.106552 0.107404 0.107848 0.108027 0.108061 0.108016 
0.107927 0.107808 0.107662 0.107486 0.107281 0.107039 0.10676 0.106431 0.106054 
0.105609 0.105102 0.104497 0.10381 0.102978 0.102038 0.100875 0.0995694 0.0979153 
0.0960676 0.0936682 0.0910095 0.0875272 0.0838886 0.0798819 0.0792457 0.0905007 0.133263 
0.213768 0.305787 0.386222 0.450704 0.496627 0.524503 0.535599 0.106722 0.107567 
0.108002 0.108174 0.108205 0.10816 0.108075 0.10796 0.107819 0.10765 0.107452 
0.107219 0.106948 0.10663 0.106265 0.105832 0.105339 0.104748 0.104077 0.103261 
0.102339 0.101192 0.0999049 0.0982617 0.0964309 0.0940289 0.0913755 0.0878533 0.0841642 
0.0799544 0.0788388 0.0888772 0.130155 0.210392 0.304066 0.385886 0.451301 0.497681 
0.525697 0.536818 0.106887 0.107725 0.108151 0.108317 0.108345 0.108301 0.108219 
0.108108 0.107973 0.10781 0.10762 0.107395 0.107134 0.106826 0.106472 0.106052 
0.105573 0.104997 0.104343 0.103543 0.10264 0.10151 0.100244 0.0986132 0.0968016 
0.0943987 0.0917541 0.0881936 0.0844605 0.080054 0.0784868 0.0873272 0.127074 0.206947 
0.302301 0.385543 0.451901 0.498726 0.526865 0.538 0.107048 0.10788 0.108296 
0.108456 0.108481 0.108438 0.108359 0.108252 0.108123 0.107967 0.107784 0.107567 
0.107315 0.107018 0.106676 0.106269 0.105804 0.105244 0.104607 0.103825 0.102942 
0.10183 0.100586 0.0989695 0.0971796 0.0947778 0.0921456 0.0885483 0.0847781 0.0801806 
0.078189 0.0858516 0.124023 0.203436 0.30049 0.385193 0.452505 0.499761 0.528004 
0.539142 0.107206 0.10803 0.108437 0.10859 0.108613 0.108571 0.108494 0.108392 
0.108269 0.108119 0.107944 0.107735 0.107493 0.107207 0.106877 0.106483 0.106033 
0.105489 0.10487 0.104106 0.103244 0.102151 0.100931 0.0993306 0.0975648 0.095166 
0.0925502 0.0889176 0.0851175 0.0803337 0.0779449 0.084451 0.12101 0.199862 0.298634 
0.384838 0.453113 0.500784 0.529109 0.54024 0.10736 0.108176 0.108574 0.10872 
0.10874 0.108699 0.108626 0.108529 0.108411 0.108268 0.1081 0.1079 0.107667 
0.107391 0.107074 0.106694 0.106259 0.105731 0.10513 0.104385 0.103546 0.102473 
0.101279 0.0996962 0.097957 0.0955635 0.0929681 0.089302 0.0854794 0.0805132 0.0777542 
0.0831255 0.118039 0.196228 0.296731 0.38448 0.453726 0.501795 0.530177 0.541289 
0.10751 0.108318 0.108706 0.108845 0.108864 0.108823 0.108754 0.108661 0.108548 
0.108412 0.108251 0.10806 0.107837 0.107572 0.107267 0.106901 0.106481 0.10597 
0.105388 0.104664 0.103847 0.102796 0.101629 0.100066 0.098356 0.0959702 0.0933995 
0.0897019 0.0858644 0.0807189 0.0776167 0.0818747 0.115117 0.19254 0.294781 0.384121 
0.454345 0.50279 0.531205 0.542286 0.107656 0.108456 0.108833 0.108966 0.108983 
0.108944 0.108877 0.108789 0.108682 0.108552 0.108399 0.108216 0.108003 0.107749 
0.107456 0.107104 0.1067 0.106206 0.105644 0.10494 0.104147 0.103119 0.10198 
0.10044 0.0987615 0.0963861 0.0938444 0.0901174 0.0862733 0.080951 0.0775324 0.0806978 
0.11225 0.188804 0.292784 0.383764 0.454971 0.503768 0.532188 0.543224 0.107799 
0.10859 0.108957 0.109083 0.109097 0.10906 0.108997 0.108913 0.108812 0.108688 
0.108543 0.108368 0.108165 0.107922 0.107641 0.107303 0.106915 0.106438 0.105896 
0.105214 0.104446 0.103443 0.102333 0.100817 0.0991732 0.0968109 0.0943028 0.0905491 
0.0867066 0.0812095 0.0775017 0.0795934 0.109443 0.185024 0.29074 0.383411 0.455605 
0.504727 0.533121 0.544099 0.107937 0.108719 0.109075 0.109195 0.109208 0.109172 
0.109112 0.109033 0.108937 0.10882 0.108682 0.108516 0.108323 0.108091 0.107822 
0.107498 0.107126 0.106667 0.106146 0.105485 0.104743 0.103765 0.102688 0.101197 
0.0995907 0.0972447 0.0947748 0.0909974 0.0871653 0.081495 0.0775252 0.0785598 0.106703 
0.181209 0.288648 0.383066 0.456248 0.505663 0.533999 0.544904 0.108072 0.108844 
0.10919 0.109303 0.109314 0.10928 0.109223 0.109149 0.109059 0.108948 0.108817 
0.10866 0.108476 0.108255 0.107999 0.107689 0.107333 0.106893 0.106391 0.105753 
0.105037 0.104087 0.103042 0.10158 0.100013 0.0976871 0.0952602 0.0914625 0.08765 
0.0818079 0.0776036 0.0775948 0.104035 0.177366 0.286512 0.382732 0.456901 0.506574 
0.534815 0.545633 0.108204 0.108966 0.1093 0.109407 0.109417 0.109383 0.109331 
0.109261 0.109176 0.109072 0.108948 0.108799 0.108625 0.108415 0.108171 0.107875 
0.107535 0.107113 0.106633 0.106019 0.105329 0.104407 0.103396 0.101965 0.100441 
0.0981379 0.0957588 0.0919449 0.0881615 0.0821492 0.0777384 0.0766963 0.101446 0.173502 
0.284332 0.382414 0.457564 0.507456 0.535564 0.546279 0.108331 0.109083 0.109406 
0.109506 0.109515 0.109483 0.109434 0.109369 0.109289 0.109191 0.109075 0.108934 
0.108769 0.10857 0.108339 0.108057 0.107733 0.10733 0.106871 0.10628 0.105618 
0.104726 0.10375 0.102352 0.100873 0.0985967 0.0962703 0.0924449 0.0887003 0.08252 
0.0779309 0.0758625 0.0989405 0.169623 0.282113 0.382119 0.458238 0.508306 0.536239 
0.546833 0.108455 0.109195 0.109507 0.109601 0.109609 0.109579 0.109533 0.109472 
0.109398 0.109306 0.109197 0.109064 0.108909 0.10872 0.108501 0.108234 0.107926 
0.107542 0.107104 0.106537 0.105903 0.105042 0.104103 0.102741 0.101308 0.0990633 
0.0967943 0.0929628 0.0892672 0.0829217 0.0781833 0.0750922 0.0965244 0.165731 0.279865 
0.381852 0.458923 0.509118 0.536832 0.547287 0.108576 0.109304 0.109604 0.109692 
0.109698 0.109671 0.109628 0.109572 0.109503 0.109417 0.109315 0.10919 0.109044 
0.108866 0.108659 0.108406 0.108114 0.107749 0.107332 0.106791 0.106184 0.105355 
0.104453 0.103129 0.101746 0.099537 0.0973301 0.093499 0.0898626 0.0833561 0.0784975 
0.0743864 0.0942046 0.161848 0.277581 0.381622 0.459618 0.50989 0.537335 0.547633 
0.108692 0.109408 0.109697 0.109778 0.109784 0.109758 0.109719 0.109667 0.109603 
0.109524 0.109428 0.109312 0.109174 0.109007 0.108812 0.108573 0.108297 0.10795 
0.107554 0.107039 0.106461 0.105665 0.104801 0.103518 0.102185 0.100017 0.0978772 
0.0940537 0.0904868 0.0838252 0.078876 0.0737486 0.0919883 0.157947 0.27529 0.381437 
0.460322 0.510614 0.537739 0.54786 0.108806 0.109509 0.109785 0.109861 0.109866 
0.109842 0.109807 0.109759 0.1097 0.109626 0.109537 0.109428 0.109299 0.109143 
0.10896 0.108735 0.108474 0.108147 0.107772 0.107282 0.106733 0.105971 0.105146 
0.103906 0.102626 0.100504 0.0984345 0.0946269 0.0911401 0.0843312 0.0793213 0.0731822 
0.0898834 0.154031 0.273005 0.381307 0.461035 0.511287 0.538035 0.547958 0.108916 
0.109605 0.109869 0.109939 0.109944 0.109922 0.10989 0.109846 0.109792 0.109724 
0.109642 0.109541 0.10942 0.109274 0.109102 0.108891 0.108646 0.108337 0.107983 
0.107519 0.106999 0.106272 0.105486 0.104292 0.103067 0.100995 0.0990012 0.0952185 
0.0918223 0.0848764 0.0798356 0.0726904 0.0878979 0.150094 0.27074 0.381243 0.461753 
0.511901 0.538215 0.547915 0.109022 0.109697 0.109949 0.110013 0.110018 0.109998 
0.109969 0.10993 0.109881 0.109818 0.109742 0.109648 0.109536 0.1094 0.109239 
0.109042 0.108812 0.108522 0.108189 0.107751 0.107259 0.106568 0.105822 0.104675 
0.103506 0.101491 0.099576 0.0958286 0.092533 0.085463 0.0804213 0.0722765 0.0860418 
0.146133 0.26851 0.381255 0.462476 0.512453 0.538265 0.547718 0.109126 0.109785 
0.110024 0.110084 0.110088 0.11007 0.110045 0.110009 0.109965 0.109908 0.109838 
0.109751 0.109647 0.109521 0.109371 0.109187 0.108972 0.108701 0.108388 0.107976 
0.107512 0.106858 0.106152 0.105056 0.103943 0.10199 0.100157 0.0964565 0.0932717 
0.0860932 0.0810807 0.0719441 0.0843264 0.142144 0.266334 0.381354 0.463203 0.512935 
0.538178 0.547355 0.109226 0.109869 0.110096 0.11015 0.110155 0.110139 0.110117 
0.110085 0.110045 0.109993 0.109929 0.109849 0.109754 0.109637 0.109498 0.109327 
0.109126 0.108873 0.108581 0.108195 0.107759 0.107142 0.106475 0.105432 0.104377 
0.102491 0.100744 0.0971018 0.0940371 0.0867694 0.081816 0.0716973 0.0827656 0.138127 
0.264226 0.381551 0.463938 0.513333 0.537943 0.546809 0.109323 0.109949 0.110163 
0.110212 0.110217 0.110204 0.110185 0.110157 0.110121 0.110074 0.110016 0.109943 
0.109855 0.109747 0.109619 0.109461 0.109274 0.10904 0.108766 0.108406 0.107998 
0.107419 0.106792 0.105803 0.104806 0.102994 0.101334 0.0977637 0.094828 0.0874937 
0.0826291 0.0715414 0.0813753 0.134078 0.262199 0.381867 0.464667 0.51365 0.537547 
0.546066 0.109416 0.110024 0.110227 0.110271 0.110276 0.110265 0.110249 0.110225 
0.110194 0.110152 0.110099 0.110033 0.109952 0.109853 0.109734 0.109589 0.109416 
0.109199 0.108945 0.108611 0.108229 0.107688 0.1071 0.106168 0.105229 0.103495 
0.101925 0.0984409 0.0956422 0.0882678 0.0835218 0.0714827 0.0801754 0.129998 0.260281 
0.382309 0.46539 0.513877 0.536976 0.545108 0.109507 0.110096 0.110286 0.110326 
0.110332 0.110323 0.11031 0.11029 0.110262 0.110225 0.110177 0.110117 0.110044 
0.109953 0.109844 0.109711 0.109551 0.109352 0.109116 0.108807 0.108453 0.10795 
0.1074 0.106525 0.105644 0.103995 0.102515 0.0991321 0.0964774 0.0890935 0.0844953 
0.0715288 0.0791896 0.125889 0.258485 0.382879 0.46612 0.514006 0.536216 0.543917 
0.109595 0.110163 0.110341 0.110377 0.110384 0.110377 0.110368 0.11035 0.110327 
0.110294 0.110251 0.110198 0.110131 0.110049 0.109949 0.109827 0.10968 0.109497 
0.10928 0.108996 0.108667 0.108202 0.10769 0.106875 0.106051 0.104492 0.103102 
0.0998357 0.0973304 0.0899721 0.0855498 0.0716883 0.0784437 0.121753 0.256808 0.38361 
0.466855 0.514026 0.53525 0.542476 0.10968 0.110226 0.110392 0.110424 0.110432 
0.110428 0.110422 0.110408 0.110388 0.110359 0.110322 0.110273 0.110213 0.110139 
0.110048 0.109937 0.109803 0.109636 0.109436 0.109176 0.108872 0.108446 0.107971 
0.107215 0.106447 0.104983 0.103683 0.100549 0.0981977 0.0909044 0.0866847 0.0719713 
0.0779645 0.117593 0.25527 0.384518 0.467598 0.513926 0.534062 0.540766 0.109762 
0.110285 0.11044 0.110468 0.110478 0.110475 0.110472 0.110461 0.110445 0.11042 
0.110387 0.110345 0.11029 0.110224 0.110141 0.110041 0.109919 0.109768 0.109584 
0.109348 0.109068 0.108679 0.10824 0.107545 0.106831 0.105467 0.104256 0.101271 
0.099075 0.0918905 0.087898 0.0723892 0.0777785 0.113411 0.25389 0.385626 0.468348 
0.51369 0.532634 0.53877 0.109841 0.11034 0.110483 0.110509 0.11052 0.11052 
0.110519 0.110511 0.110499 0.110478 0.110449 0.110412 0.110363 0.110304 0.110229 
0.11014 0.110028 0.109892 0.109724 0.109512 0.109255 0.108902 0.108497 0.107864 
0.107203 0.105942 0.104818 0.101997 0.0999573 0.0929298 0.0891859 0.072955 0.0779114 
0.109214 0.252692 0.386957 0.469103 0.513303 0.530949 0.536469 0.109917 0.110391 
0.110523 0.110546 0.110558 0.110561 0.110563 0.110558 0.110549 0.110532 0.110507 
0.110474 0.110431 0.110379 0.110312 0.110232 0.110131 0.110009 0.109857 0.109666 
0.109431 0.109115 0.108742 0.10817 0.107559 0.106406 0.105365 0.102725 0.100839 
0.0940208 0.0905427 0.0736837 0.0783866 0.105007 0.251706 0.388535 0.469859 0.512749 
0.528988 0.533845 0.109991 0.110438 0.11056 0.11058 0.110594 0.110599 0.110604 
0.110602 0.110595 0.110582 0.110561 0.110533 0.110495 0.110449 0.110389 0.110318 
0.110227 0.110119 0.109981 0.109812 0.109597 0.109316 0.108974 0.108463 0.107901 
0.106856 0.105895 0.103451 0.101714 0.0951609 0.0919605 0.0745916 0.0792233 0.100803 
0.250971 0.390383 0.47061 0.512005 0.526734 0.530882 0.110062 0.11048 0.110592 
0.110611 0.110627 0.110634 0.110641 0.110642 0.110638 0.110628 0.110611 0.110587 
0.110554 0.110514 0.110461 0.110398 0.110317 0.110221 0.110097 0.109948 0.109753 
0.109505 0.109193 0.108741 0.108225 0.107291 0.106405 0.10417 0.102576 0.096346 
0.0934286 0.0756966 0.0804332 0.0966177 0.250533 0.392525 0.471347 0.511051 0.524167 
0.527563 0.11013 0.110519 0.110622 0.11064 0.110657 0.110667 0.110676 0.110679 
0.110678 0.110671 0.110657 0.110637 0.110609 0.110574 0.110527 0.110473 0.1104 
0.110317 0.110204 0.110074 0.109898 0.109683 0.109399 0.109004 0.10853 0.107709 
0.106893 0.104878 0.103418 0.0975705 0.0949335 0.0770175 0.0820175 0.0924721 0.250448 
0.394982 0.472059 0.509859 0.521268 0.523875 0.110195 0.110553 0.110647 0.110665 
0.110684 0.110696 0.110708 0.110713 0.110715 0.11071 0.110699 0.110683 0.110659 
0.110629 0.110588 0.110541 0.110476 0.110404 0.110304 0.110192 0.110033 0.109848 
0.10959 0.109251 0.108817 0.108106 0.107355 0.10557 0.104232 0.0988269 0.0964584 
0.0785731 0.0839618 0.0883952 0.250787 0.397773 0.47273 0.508403 0.518021 0.519805 
0.110257 0.110583 0.11067 0.110688 0.110709 0.110723 0.110737 0.110745 0.110748 
0.110746 0.110738 0.110725 0.110705 0.11068 0.110644 0.110604 0.110547 0.110485 
0.110395 0.1103 0.110157 0.11 0.109766 0.109481 0.109084 0.108481 0.107788 
0.106241 0.10501 0.100106 0.0979835 0.0803812 0.0862319 0.0844237 0.251634 0.400912 
0.473339 0.506649 0.514408 0.515344 0.110316 0.110609 0.110689 0.110707 0.110731 
0.110747 0.110763 0.110773 0.110778 0.110779 0.110773 0.110764 0.110746 0.110726 
0.110695 0.11066 0.11061 0.110558 0.110478 0.110398 0.11027 0.110139 0.109928 
0.109692 0.109329 0.108831 0.108192 0.106883 0.105746 0.101394 0.0994856 0.0824559 
0.0887682 0.0806018 0.253097 0.404402 0.473861 0.504564 0.510412 0.510487 0.110372 
0.110632 0.110706 0.110725 0.110751 0.110769 0.110787 0.110798 0.110806 0.110808 
0.110805 0.110798 0.110784 0.110767 0.110741 0.110712 0.110668 0.110624 0.110554 
0.110487 0.110373 0.110266 0.110075 0.109886 0.109554 0.109154 0.108563 0.107492 
0.106433 0.102678 0.100939 0.0848062 0.0914827 0.0769809 0.255308 0.408239 0.474262 
0.502108 0.506019 0.505231 0.110427 0.110653 0.110722 0.110743 0.110771 0.110791 
0.11081 0.110823 0.110832 0.110837 0.110836 0.110831 0.11082 0.110807 0.110784 
0.11076 0.110722 0.110685 0.110623 0.110569 0.110467 0.110381 0.110209 0.110062 
0.109759 0.109451 0.108903 0.108061 0.107066 0.103941 0.10232 0.0874328 0.0942574 
0.0736202 0.258436 0.412401 0.4745 0.499241 0.501217 0.499579 0.110468 0.11066 
0.110726 0.110749 0.110778 0.110801 0.110821 0.110836 0.110846 0.110853 0.110853 
0.110851 0.110842 0.110832 0.110812 0.110793 0.11076 0.11073 0.110675 0.110631 
0.11054 0.110474 0.110319 0.110208 0.109932 0.109707 0.109198 0.108574 0.10763 
0.105149 0.103589 0.0903083 0.0969363 0.0705906 0.26269 0.416847 0.474523 0.495919 
0.495998 0.493539 0.110493 0.110651 0.110714 0.11074 0.110771 0.110795 0.110817 
0.110833 0.110845 0.110852 0.110855 0.110854 0.110848 0.11084 0.110823 0.110808 
0.110779 0.110754 0.110706 0.110671 0.110591 0.11054 0.110401 0.110321 0.11007 
0.109917 0.109444 0.109017 0.108115 0.106271 0.104714 0.0933765 0.0993254 0.0679648 
0.26834 0.421511 0.474267 0.4921 0.490358 0.487127 0.110661 0.110788 0.110848 
0.110878 0.11091 0.110936 0.110959 0.110976 0.110989 0.110998 0.111002 0.111003 
0.110998 0.110992 0.110978 0.110966 0.110941 0.110921 0.110879 0.11085 0.110779 
0.110741 0.110616 0.110562 0.110334 0.11024 0.109802 0.109545 0.10868 0.107438 
0.105832 0.0967238 0.101346 0.0659093 0.27572 0.426289 0.473651 0.487738 0.4843 
0.480365 0.110804 0.110908 0.110966 0.110999 0.111032 0.11106 0.111083 0.111101 
0.111115 0.111125 0.11113 0.111132 0.111129 0.111125 0.111113 0.111103 0.111081 
0.111065 0.111028 0.111006 0.110943 0.110914 0.110804 0.110768 0.110564 0.110516 
0.110116 0.109996 0.109178 0.108472 0.106811 0.100126 0.102828 0.0649607 0.285248 
0.431029 0.47256 0.482776 0.477816 0.473264 0.108982 0.10907 0.109126 0.10916 
0.109194 0.109222 0.109245 0.109264 0.109278 0.109288 0.109293 0.109297 0.109295 
0.109292 0.109283 0.109274 0.109256 0.109242 0.109211 0.109192 0.109138 0.109116 
0.10902 0.108997 0.108818 0.1088 0.108445 0.108423 0.107669 0.10739 0.105722 
0.101414 0.101986 0.0643462 0.297484 0.435541 0.470835 0.477135 0.470877 0.465817 
0.109699 0.109726 0.109783 0.109822 0.109858 0.109889 0.109914 0.109935 0.10995 
0.109962 0.109968 0.109972 0.109972 0.109969 0.109961 0.109953 0.109936 0.109923 
0.109894 0.109876 0.109827 0.109805 0.109718 0.109697 0.109534 0.109526 0.109199 
0.109227 0.108511 0.108526 0.106767 0.104576 0.101766 0.0654287 0.313161 0.439658 
0.468376 0.470863 0.463573 0.458134 0.132338 0.132364 0.13243 0.132481 0.132525 
0.132563 0.132594 0.132619 0.132638 0.132653 0.132661 0.132667 0.132667 0.132665 
0.132657 0.132648 0.132631 0.132615 0.132586 0.132564 0.132514 0.132485 0.132399 
0.132366 0.132209 0.132181 0.131868 0.131875 0.13118 0.13127 0.129403 0.128502 
0.12152 0.088354 0.332612 0.443127 0.465386 0.464422 0.456421 0.450739 0.105874 
0.105923 0.105972 0.106013 0.106046 0.106076 0.1061 0.106119 0.106134 0.106145 
0.106152 0.106156 0.106156 0.106154 0.106149 0.106142 0.106129 0.106117 0.106095 
0.106078 0.106041 0.106018 0.105956 0.105927 0.105816 0.105787 0.105567 0.105558 
0.105071 0.105134 0.103803 0.103514 0.0978937 0.0798102 0.351971 0.444591 0.462291 
0.458759 0.450572 0.444768 0.109299 0.109356 0.109406 0.109448 0.109482 0.109513 
0.109537 0.109557 0.109572 0.109583 0.109591 0.109595 0.109595 0.109594 0.109588 
0.109581 0.109568 0.109556 0.109534 0.109516 0.10948 0.109456 0.109395 0.109365 
0.109255 0.109223 0.109007 0.108994 0.108517 0.108583 0.107285 0.10722 0.101815 
0.089362 0.363814 0.444871 0.460311 0.455437 0.447269 0.441417 0.110119 0.110178 
0.110228 0.11027 0.110305 0.110336 0.110361 0.110381 0.110396 0.110408 0.110415 
0.11042 0.11042 0.110419 0.110413 0.110406 0.110394 0.110382 0.11036 0.110343 
0.110308 0.110283 0.110224 0.110193 0.110087 0.110054 0.109846 0.10983 0.109374 
0.109443 0.108225 0.108418 0.103742 0.0981956 0.375973 0.444606 0.458025 0.451964 
0.443904 0.43803 0.109814 0.109879 0.109928 0.109971 0.110005 0.110037 0.110061 
0.110082 0.110097 0.110109 0.110116 0.110121 0.110122 0.110121 0.110115 0.110109 
0.110098 0.110086 0.110066 0.110049 0.110016 0.109993 0.109938 0.109908 0.109809 
0.109777 0.109584 0.10957 0.109148 0.109232 0.108137 0.108658 0.10505 0.10754 
0.388245 0.443811 0.455424 0.448348 0.440471 0.434599 0.109632 0.109707 0.109755 
0.109798 0.109834 0.109865 0.10989 0.109911 0.109927 0.109939 0.109947 0.109953 
0.109955 0.109955 0.109951 0.109947 0.109937 0.109928 0.109911 0.109898 0.109869 
0.10985 0.109802 0.109779 0.109692 0.10967 0.109499 0.109502 0.109131 0.109263 
0.108333 0.109279 0.106979 0.118484 0.400435 0.442481 0.452533 0.444626 0.436998 
0.431149 0.109333 0.109423 0.109472 0.109517 0.109553 0.109586 0.109612 0.109634 
0.109652 0.109666 0.109677 0.109685 0.10969 0.109694 0.109695 0.109696 0.109693 
0.109691 0.109683 0.109679 0.109663 0.109658 0.109628 0.109625 0.109567 0.109576 
0.109456 0.109515 0.109246 0.109505 0.108854 0.110417 0.109791 0.131492 0.412261 
0.440618 0.449377 0.440828 0.433509 0.427702 0.107582 0.10769 0.10774 0.107787 
0.107825 0.107861 0.10789 0.107916 0.107938 0.107959 0.107977 0.107993 0.108009 
0.108024 0.108039 0.108055 0.10807 0.108088 0.108105 0.108129 0.108148 0.108182 
0.108202 0.108258 0.108277 0.108379 0.108387 0.108606 0.108578 0.109172 0.109101 
0.111765 0.113559 0.146968 0.422996 0.438152 0.445899 0.436909 0.429958 0.424212 
0.105628 0.105759 0.105816 0.10587 0.105915 0.105959 0.105998 0.106038 0.106076 
0.106116 0.106156 0.1062 0.106246 0.106298 0.106354 0.106419 0.10649 0.106574 
0.106666 0.10678 0.106904 0.107064 0.107236 0.107476 0.107725 0.108113 0.108497 
0.109209 0.109866 0.111454 0.112883 0.118265 0.124655 0.173964 0.430952 0.434849 
0.441811 0.432635 0.426117 0.420459 0.127539 0.127758 0.12785 0.127942 0.128022 
0.128108 0.128196 0.128294 0.128402 0.128524 0.128661 0.128816 0.128992 0.129193 
0.129421 0.129684 0.129983 0.13033 0.130729 0.131201 0.131745 0.132405 0.133173 
0.134139 0.135273 0.136778 0.138563 0.141149 0.144244 0.149463 0.155829 0.170332 
0.189523 0.278664 0.43577 0.429357 0.435408 0.426415 0.420531 0.415048 0.106104 
0.106525 0.106685 0.106838 0.106973 0.107123 0.107287 0.107477 0.107695 0.107948 
0.108239 0.108575 0.10896 0.109401 0.109905 0.110483 0.111144 0.111907 0.112784 
0.113806 0.114992 0.116395 0.118043 0.12004 0.122423 0.125416 0.129055 0.133908 
0.13994 0.148926 0.160406 0.181942 0.21062 0.301141 0.425854 0.418772 0.424407 
0.416588 0.411705 0.406584 0.108675 0.109301 0.109545 0.109767 0.109952 0.11015 
0.110359 0.110596 0.110865 0.111175 0.111531 0.111939 0.112408 0.112944 0.113558 
0.114261 0.115066 0.115994 0.117061 0.118301 0.119741 0.121439 0.123435 0.125841 
0.128714 0.132294 0.136659 0.142402 0.149584 0.160024 0.173496 0.19743 0.229185 
0.31127 0.411382 0.406758 0.412953 0.40673 0.40292 0.39819 0.109092 0.109861 
0.110192 0.110483 0.110717 0.110957 0.111203 0.111475 0.11178 0.112127 0.112524 
0.112979 0.113501 0.114098 0.114782 0.115566 0.116465 0.117501 0.118693 0.120078 
0.121687 0.123582 0.125809 0.128488 0.13169 0.135662 0.14051 0.14684 0.154771 
0.166117 0.180776 0.205702 0.238304 0.3105 0.394614 0.393813 0.401161 0.396749 
0.394044 0.389718 0.109089 0.109981 0.110396 0.110756 0.111038 0.111318 0.111595 
0.111895 0.112226 0.112599 0.113023 0.113507 0.114062 0.114697 0.115424 0.116259 
0.117216 0.118319 0.119591 0.121068 0.122784 0.124805 0.127182 0.130037 0.13345 
0.137673 0.142832 0.149528 0.157929 0.169774 0.185067 0.209997 0.242224 0.304442 
0.37733 0.380586 0.389273 0.38671 0.385081 0.381156 0.109288 0.110275 0.110771 
0.111197 0.111526 0.111843 0.11215 0.112475 0.112827 0.113221 0.113665 0.114171 
0.11475 0.115412 0.11617 0.117041 0.11804 0.119192 0.120521 0.122065 0.123859 
0.125971 0.128456 0.131437 0.135002 0.139401 0.144777 0.151715 0.160418 0.172513 
0.188091 0.212446 0.243674 0.297002 0.360811 0.367609 0.377544 0.376728 0.376099 
0.372558 0.10951 0.11057 0.111141 0.11163 0.112005 0.11236 0.112696 0.113045 
0.113418 0.11383 0.114293 0.114818 0.115417 0.116103 0.116888 0.117789 0.118824 
0.120018 0.121395 0.122995 0.124855 0.127044 0.129618 0.132703 0.136391 0.140929 
0.146472 0.153582 0.16249 0.174683 0.190324 0.213795 0.243712 0.289591 0.345614 
0.355195 0.366142 0.366888 0.367151 0.363968 0.109765 0.11088 0.111522 0.112069 
0.112491 0.112882 0.113247 0.11362 0.114014 0.114444 0.114925 0.115468 0.116087 
0.116794 0.117604 0.118533 0.119601 0.120833 0.122254 0.123905 0.125825 0.128081 
0.130736 0.13391 0.137703 0.142357 0.148034 0.155267 0.164308 0.176489 0.192038 
0.214462 0.242901 0.28267 0.331899 0.343496 0.355166 0.357247 0.35828 0.355421 
0.110052 0.11121 0.111917 0.112519 0.112985 0.113413 0.113807 0.114204 0.114619 
0.115068 0.115566 0.116128 0.116766 0.117494 0.118328 0.119285 0.120384 0.121652 
0.123115 0.124814 0.12679 0.129109 0.131836 0.135091 0.138978 0.143729 0.149515 
0.156833 0.165951 0.178038 0.193379 0.214685 0.241563 0.276351 0.319629 0.332561 
0.344667 0.347846 0.349523 0.346952 0.110369 0.11156 0.112325 0.112978 0.113488 
0.113951 0.114375 0.114796 0.115232 0.1157 0.116217 0.116796 0.117453 0.118203 
0.11906 0.120044 0.121175 0.122478 0.123981 0.125727 0.127755 0.130134 0.132928 
0.136257 0.140227 0.14506 0.150932 0.158303 0.167449 0.17938 0.194421 0.214594 
0.239879 0.270592 0.308673 0.32238 0.334666 0.338714 0.340912 0.338593 0.110712 
0.111929 0.112748 0.113448 0.114 0.114498 0.114951 0.115397 0.115853 0.116341 
0.116876 0.117474 0.118151 0.118922 0.119803 0.120813 0.121974 0.123312 0.124855 
0.126644 0.128723 0.131157 0.134015 0.13741 0.141452 0.146353 0.152291 0.159685 
0.168817 0.180539 0.195208 0.214264 0.237962 0.265308 0.298868 0.312911 0.325163 
0.32987 0.332473 0.330371 0.111081 0.112319 0.113186 0.11393 0.114522 0.115053 
0.115535 0.116006 0.116484 0.116991 0.117545 0.118162 0.118859 0.11965 0.120555 
0.121592 0.122783 0.124154 0.125735 0.127567 0.129693 0.13218 0.135095 0.13855 
0.142654 0.147609 0.153591 0.160981 0.170058 0.181531 0.19577 0.213743 0.235882 
0.260414 0.290055 0.3041 0.316147 0.321327 0.324227 0.32231 0.111473 0.112729 
0.11364 0.114423 0.115054 0.115618 0.116128 0.116623 0.117123 0.11765 0.118223 
0.118859 0.119576 0.120389 0.121317 0.12238 0.1236 0.125003 0.126621 0.128493 
0.130665 0.1332 0.136167 0.139674 0.14383 0.148824 0.154832 0.162191 0.171177 
0.182366 0.19613 0.213062 0.233693 0.255838 0.282089 0.295891 0.307601 0.31309 
0.316195 0.314431 0.111889 0.113158 0.114109 0.114929 0.115596 0.116192 0.11673 
0.117249 0.117771 0.118318 0.118911 0.119566 0.120302 0.121136 0.122087 0.123176 
0.124424 0.125859 0.127512 0.129423 0.131636 0.134215 0.137228 0.14078 0.144977 
0.149996 0.156009 0.163314 0.172175 0.183053 0.196309 0.212247 0.231431 0.251526 
0.274846 0.288228 0.299504 0.305163 0.308389 0.306752 0.112326 0.113608 0.114594 
0.115447 0.116149 0.116775 0.117341 0.117884 0.118428 0.118995 0.119606 0.120281 
0.121037 0.121892 0.122866 0.12398 0.125256 0.126721 0.128407 0.130353 0.132605 
0.135224 0.138277 0.141865 0.146093 0.151123 0.157121 0.164349 0.173056 0.1836 
0.196324 0.211316 0.229126 0.247437 0.268221 0.281062 0.291834 0.297547 0.300822 
0.299287 0.112785 0.114077 0.115095 0.115979 0.116714 0.117368 0.117961 0.118528 
0.119093 0.11968 0.120311 0.121004 0.12178 0.122656 0.123653 0.124791 0.126093 
0.127587 0.129304 0.131284 0.13357 0.136224 0.139311 0.142927 0.147174 0.152201 
0.158165 0.165295 0.173821 0.184016 0.196193 0.210285 0.226798 0.243538 0.262125 
0.274346 0.284567 0.29024 0.293503 0.292049 0.113264 0.114565 0.115612 0.116524 
0.11729 0.117972 0.11859 0.11918 0.119767 0.120374 0.121024 0.121736 0.122531 
0.123428 0.124446 0.125607 0.126935 0.128456 0.130202 0.132212 0.13453 0.137213 
0.140328 0.143963 0.148217 0.153227 0.159141 0.166153 0.174476 0.184308 0.19593 
0.209169 0.224466 0.239809 0.256485 0.268039 0.277683 0.283237 0.286437 0.285046 
0.113763 0.115073 0.116146 0.117083 0.117877 0.118585 0.119229 0.119841 0.120449 
0.121075 0.121744 0.122475 0.12329 0.124206 0.125246 0.126429 0.127781 0.129328 
0.1311 0.133137 0.135482 0.138189 0.141324 0.14497 0.149221 0.154201 0.160047 
0.166924 0.175024 0.184485 0.19555 0.20798 0.22214 0.236231 0.25124 0.262104 
0.271158 0.276534 0.27963 0.278285 0.11428 0.115598 0.116695 0.117655 0.118476 
0.119209 0.119876 0.120511 0.121139 0.121784 0.122472 0.123222 0.124055 0.124991 
0.12605 0.127255 0.128629 0.1302 0.131996 0.134057 0.136424 0.139151 0.142299 
0.145947 0.150183 0.155119 0.160882 0.167609 0.17547 0.184553 0.195067 0.206729 
0.219831 0.232791 0.246339 0.256509 0.264972 0.270122 0.273082 0.27177 0.114817 
0.116142 0.11726 0.118241 0.119088 0.119844 0.120534 0.121189 0.121837 0.122501 
0.123207 0.123975 0.124826 0.125781 0.12686 0.128085 0.129479 0.131071 0.132889 
0.13497 0.137354 0.140095 0.143249 0.14689 0.151101 0.155982 0.161647 0.16821 
0.175818 0.184522 0.194491 0.205426 0.217546 0.229478 0.24174 0.251223 0.259104 
0.263995 0.266793 0.265503 0.115372 0.116703 0.11784 0.118841 0.119711 0.120489 
0.1212 0.121875 0.122542 0.123225 0.123949 0.124734 0.125603 0.126575 0.127672 
0.128916 0.13033 0.13194 0.133776 0.135873 0.138272 0.14102 0.144173 0.147799 
0.151974 0.156788 0.162341 0.168729 0.176074 0.184399 0.193835 0.204082 0.215291 
0.226285 0.237408 0.246223 0.253536 0.258144 0.260762 0.259484 0.115944 0.117281 
0.118436 0.119455 0.120346 0.121144 0.121876 0.12257 0.123256 0.123956 0.124696 
0.125498 0.126384 0.127373 0.128487 0.129748 0.131179 0.132806 0.134657 0.136767 
0.139174 0.141923 0.145068 0.14867 0.152801 0.157535 0.162967 0.169168 0.176243 
0.18419 0.193108 0.202703 0.213069 0.223203 0.233314 0.241484 0.248249 0.252559 
0.254985 0.253713 0.116533 0.117876 0.119046 0.120082 0.120992 0.121809 0.12256 
0.123273 0.123976 0.124693 0.12545 0.126268 0.127169 0.128174 0.129304 0.13058 
0.132026 0.133666 0.13553 0.137648 0.140059 0.142804 0.145934 0.149504 0.153579 
0.158226 0.163524 0.16953 0.176331 0.183904 0.192319 0.201298 0.210884 0.220228 
0.229433 0.236987 0.243227 0.247233 0.249458 0.248186 0.117138 0.118487 0.119672 
0.120722 0.12165 0.122485 0.123254 0.123983 0.124703 0.125436 0.126208 0.127041 
0.127957 0.128977 0.130121 0.131411 0.132869 0.134521 0.136393 0.138516 0.140925 
0.14366 0.146768 0.150298 0.154309 0.158858 0.164014 0.169819 0.176342 0.183547 
0.191477 0.199873 0.208738 0.217354 0.225747 0.232715 0.238455 0.242154 0.244176 
0.242898 0.117759 0.119114 0.120311 0.121374 0.122319 0.12317 0.123956 0.124701 
0.125436 0.126184 0.126971 0.127818 0.128748 0.12978 0.130937 0.132239 0.133707 
0.135367 0.137244 0.139368 0.141771 0.14449 0.147568 0.151051 0.15499 0.159433 
0.164439 0.170038 0.176282 0.183126 0.19059 0.198435 0.206633 0.214577 0.222236 
0.228652 0.233917 0.237314 0.239132 0.237846 0.118395 0.119755 0.120964 0.12204 
0.123 0.123865 0.124666 0.125426 0.126176 0.126937 0.127737 0.128597 0.129539 
0.130584 0.131751 0.133063 0.134539 0.136204 0.138083 0.140202 0.142594 0.145292 
0.148335 0.151763 0.155622 0.159952 0.164801 0.170191 0.176156 0.182647 0.189664 
0.196989 0.204569 0.211893 0.218889 0.224784 0.229602 0.232703 0.23432 0.233024 
0.119046 0.120411 0.121631 0.122717 0.12369 0.124569 0.125384 0.126157 0.12692 
0.127694 0.128507 0.129378 0.130332 0.131386 0.132563 0.133882 0.135364 0.137031 
0.138907 0.141019 0.143394 0.146065 0.149066 0.152433 0.156205 0.160415 0.165103 
0.17028 0.175969 0.182116 0.188706 0.195541 0.202549 0.209299 0.215691 0.221098 
0.225496 0.228311 0.229733 0.228424 0.119711 0.12108 0.12231 0.123406 0.124391 
0.125281 0.126109 0.126895 0.12767 0.128455 0.129279 0.130161 0.131123 0.132187 
0.13337 0.134694 0.136179 0.137845 0.139716 0.141815 0.14417 0.146808 0.149761 
0.15306 0.156739 0.160824 0.165347 0.17031 0.175726 0.18154 0.187723 0.194095 
0.200573 0.206791 0.212634 0.217585 0.221589 0.22413 0.225363 0.224041 0.120389 
0.121762 0.123001 0.124105 0.125102 0.126002 0.126841 0.127638 0.128423 0.129219 
0.130052 0.130943 0.131914 0.132984 0.134173 0.1355 0.136984 0.138646 0.140507 
0.14259 0.144919 0.147519 0.150419 0.153645 0.157225 0.161181 0.165535 0.170285 
0.175433 0.180923 0.186718 0.192655 0.198642 0.204368 0.209708 0.214233 0.21787 
0.220149 0.221202 0.219866 0.121079 0.122456 0.123703 0.124815 0.125821 0.126731 
0.12758 0.128386 0.12918 0.129985 0.130827 0.131725 0.132702 0.133776 0.134968 
0.136296 0.137777 0.139432 0.14128 0.143343 0.145641 0.148199 0.15104 0.154187 
0.157664 0.161487 0.16567 0.170207 0.175094 0.180272 0.185698 0.191224 0.196756 
0.202026 0.206907 0.211035 0.214329 0.216362 0.217242 0.215893 0.12178 0.123162 
0.124416 0.125535 0.126549 0.127467 0.128324 0.129138 0.12994 0.130753 0.131601 
0.132505 0.133486 0.134564 0.135757 0.137082 0.138558 0.140202 0.142034 0.144071 
0.146335 0.148846 0.151623 0.154688 0.158057 0.161743 0.165755 0.170082 0.174713 
0.17959 0.184666 0.189807 0.194916 0.199764 0.204222 0.207983 0.210958 0.212758 
0.213476 0.212113 0.122493 0.123879 0.125139 0.126264 0.127284 0.128209 0.129073 
0.129893 0.130703 0.131521 0.132374 0.133282 0.134266 0.135345 0.136536 0.137857 
0.139325 0.140955 0.142766 0.144776 0.147001 0.149459 0.15217 0.155147 0.158406 
0.161953 0.165793 0.169913 0.174295 0.178884 0.183627 0.188406 0.193123 0.197579 
0.201649 0.205068 0.207748 0.20933 0.209895 0.208519 0.123215 0.124605 0.125871 
0.127 0.128027 0.128956 0.129826 0.130652 0.131466 0.132288 0.133145 0.134056 
0.135041 0.136118 0.137306 0.13862 0.140076 0.14169 0.143477 0.145454 0.147637 
0.15004 0.152678 0.155565 0.15871 0.162118 0.165788 0.169703 0.173844 0.178156 
0.182585 0.187023 0.191376 0.195469 0.199183 0.202286 0.204691 0.20607 0.206492 
0.205104 0.123946 0.12534 0.126611 0.127744 0.128775 0.129709 0.130582 0.131412 
0.13223 0.133055 0.133914 0.134825 0.135809 0.136883 0.138065 0.139369 0.140811 
0.142405 0.144166 0.146107 0.148243 0.150587 0.15315 0.155943 0.158973 0.16224 
0.165741 0.169457 0.173364 0.177411 0.181544 0.185662 0.189677 0.193433 0.196819 
0.199629 0.20178 0.202971 0.203259 0.20186 0.124685 0.126083 0.127358 0.128495 
0.129528 0.130465 0.131342 0.132174 0.132993 0.133819 0.134678 0.135588 0.136569 
0.137638 0.138812 0.140104 0.141529 0.1431 0.144831 0.146733 0.148819 0.1511 
0.153586 0.156283 0.159196 0.162323 0.165657 0.169177 0.17286 0.176653 0.180505 
0.184324 0.188025 0.191469 0.194553 0.197093 0.19901 0.200024 0.200189 0.19878 
0.125432 0.126832 0.128111 0.12925 0.130286 0.131225 0.132102 0.132935 0.133755 
0.134581 0.135438 0.136345 0.137321 0.138383 0.139546 0.140823 0.142228 0.143774 
0.145471 0.147332 0.149365 0.15158 0.153986 0.156585 0.15938 0.162367 0.165537 
0.168868 0.172334 0.175886 0.179473 0.183012 0.186421 0.189576 0.192382 0.194671 
0.196372 0.197224 0.197275 0.195856 0.126184 0.127588 0.12887 0.13001 0.131047 
0.131986 0.132864 0.133696 0.134514 0.135338 0.136192 0.137094 0.138064 0.139116 
0.140265 0.141526 0.142909 0.144426 0.146087 0.147903 0.14988 0.152028 0.15435 
0.156851 0.159528 0.162377 0.165386 0.168533 0.17179 0.175113 0.178451 0.181726 
0.184864 0.187752 0.190301 0.19236 0.193861 0.194564 0.194509 0.193081 0.12694 
0.128347 0.129632 0.130773 0.131811 0.132749 0.133625 0.134455 0.13527 0.13609 
0.136939 0.137835 0.138795 0.139836 0.14097 0.142211 0.143569 0.145055 0.146678 
0.148446 0.150366 0.152443 0.154682 0.157082 0.159642 0.162354 0.165205 0.168174 
0.171232 0.174337 0.17744 0.180469 0.183355 0.185996 0.188309 0.190155 0.191473 
0.192037 0.191884 0.190449 0.127701 0.129111 0.130397 0.131539 0.132575 0.133511 
0.134384 0.135211 0.136022 0.136837 0.137679 0.138566 0.139515 0.140542 0.141659 
0.142878 0.14421 0.145662 0.147244 0.148962 0.150821 0.152827 0.15498 0.15728 
0.159723 0.162301 0.164999 0.167796 0.170663 0.173561 0.176442 0.179242 0.181894 
0.184306 0.186401 0.188052 0.1892 0.189638 0.189395 0.187953 0.128464 0.129877 
0.131165 0.132305 0.133339 0.134272 0.135141 0.135963 0.136768 0.137576 0.13841 
0.139286 0.140223 0.141234 0.142332 0.143527 0.144829 0.146246 0.147784 0.14945 
0.151247 0.153179 0.155246 0.157446 0.159774 0.16222 0.164769 0.1674 0.170086 
0.172788 0.175461 0.178046 0.180481 0.182681 0.184575 0.186046 0.187039 0.18736 
0.187035 0.185586 0.129228 0.130644 0.131932 0.133071 0.134103 0.135031 0.135895 
0.13671 0.137508 0.138307 0.139131 0.139995 0.140917 0.14191 0.142987 0.144156 
0.145426 0.146805 0.148298 0.149911 0.151645 0.153502 0.155483 0.157583 0.159797 
0.162113 0.164518 0.166991 0.169503 0.172019 0.174497 0.176882 0.179115 0.18112 
0.182829 0.184134 0.184984 0.185199 0.184798 0.183344 0.129992 0.131411 0.132699 
0.133836 0.134864 0.135787 0.136644 0.137452 0.138241 0.139029 0.139841 0.140691 
0.141597 0.142571 0.143624 0.144765 0.146002 0.147341 0.148787 0.150344 0.152014 
0.153796 0.15569 0.157691 0.159793 0.161984 0.16425 0.16657 0.168917 0.171258 
0.173553 0.175751 0.177797 0.179621 0.18116 0.182313 0.183032 0.183148 0.182679 
0.18122 0.130755 0.132176 0.133465 0.134599 0.135621 0.136538 0.137387 0.138186 
0.138964 0.139741 0.140539 0.141374 0.142262 0.143214 0.144242 0.145353 0.146555 
0.147853 0.149251 0.150751 0.152355 0.154062 0.15587 0.157774 0.159766 0.161835 
0.163966 0.16614 0.16833 0.170506 0.17263 0.174653 0.176526 0.178183 0.179565 
0.180578 0.181177 0.181204 0.180671 0.179209 0.131515 0.132939 0.134227 0.135357 
0.136374 0.137283 0.138123 0.138911 0.139678 0.140442 0.141225 0.142043 0.142911 
0.14384 0.144841 0.145921 0.147086 0.148341 0.149689 0.151132 0.15267 0.154302 
0.156024 0.157832 0.159716 0.161667 0.16367 0.165704 0.167746 0.169766 0.171728 
0.173589 0.175302 0.176804 0.178042 0.178927 0.179416 0.17936 0.178771 0.177305 
0.132271 0.133697 0.134984 0.13611 0.13712 0.138021 0.138851 0.139628 0.140382 
0.141131 0.141898 0.142697 0.143543 0.144448 0.145421 0.146468 0.147595 0.148806 
0.150103 0.151487 0.152959 0.154516 0.156153 0.157867 0.159647 0.161484 0.163362 
0.165263 0.167165 0.169038 0.17085 0.17256 0.174124 0.175484 0.176589 0.177356 
0.177744 0.177614 0.176972 0.175503 0.133023 0.134451 0.135736 0.136857 0.13786 
0.138751 0.13957 0.140334 0.141073 0.141807 0.142556 0.143335 0.144159 0.145037 
0.14598 0.146993 0.148081 0.149246 0.150492 0.151818 0.153223 0.154705 0.15626 
0.157881 0.159561 0.161287 0.163046 0.164821 0.166589 0.168325 0.169997 0.171566 
0.172993 0.174221 0.175204 0.175863 0.176159 0.17596 0.175271 0.1738 0.133768 
0.135198 0.136481 0.137597 0.138591 0.139472 0.140278 0.141028 0.141752 0.142469 
0.143198 0.143956 0.144756 0.145608 0.146519 0.147497 0.148544 0.149664 0.150858 
0.152125 0.153464 0.154872 0.156345 0.157877 0.159458 0.161078 0.162724 0.164378 
0.166021 0.167627 0.169168 0.170607 0.171906 0.173013 0.173885 0.174445 0.174656 
0.174395 0.173663 0.17219 0.134505 0.135937 0.137217 0.138327 0.139312 0.140182 
0.140975 0.14171 0.142418 0.143116 0.143825 0.144561 0.145335 0.146158 0.147038 
0.147979 0.148985 0.150059 0.1512 0.152408 0.153682 0.155018 0.156411 0.157855 
0.159341 0.16086 0.162397 0.163937 0.165462 0.166947 0.168365 0.169683 0.170864 
0.17186 0.172629 0.173098 0.173232 0.172915 0.172143 0.170668 0.135233 0.136667 
0.137944 0.139047 0.140023 0.14088 0.141659 0.142379 0.143069 0.143747 0.144435 
0.145147 0.145896 0.146689 0.147536 0.14844 0.149404 0.150431 0.15152 0.15267 
0.153879 0.155143 0.156458 0.157818 0.159213 0.160633 0.162068 0.1635 0.164913 
0.166284 0.167589 0.168794 0.169866 0.17076 0.171434 0.171821 0.171884 0.171515 
0.170707 0.169232 0.135951 0.137386 0.13866 0.139756 0.140721 0.141566 0.14233 
0.143033 0.143704 0.144362 0.145028 0.145716 0.146437 0.1472 0.148013 0.148879 
0.149802 0.150781 0.151818 0.15291 0.154055 0.15525 0.156489 0.157766 0.159074 
0.160401 0.161737 0.163068 0.164376 0.165641 0.166839 0.16794 0.168912 0.169711 
0.170298 0.17061 0.170609 0.170193 0.169353 0.167877 0.136657 0.138094 0.139364 
0.140453 0.141407 0.142238 0.142986 0.143671 0.144323 0.14496 0.145603 0.146265 
0.146959 0.147691 0.14847 0.149298 0.150178 0.15111 0.152095 0.15313 0.154213 
0.15534 0.156505 0.157703 0.158926 0.160164 0.161408 0.162642 0.163851 0.165017 
0.166116 0.167121 0.168 0.168712 0.169221 0.169463 0.169403 0.168945 0.168075 
0.166599 0.137351 0.138789 0.140055 0.141135 0.142078 0.142895 0.143627 0.144294 
0.144925 0.145541 0.14616 0.146796 0.147461 0.148162 0.148906 0.149696 0.150533 
0.151419 0.152352 0.153331 0.154353 0.155413 0.156507 0.157629 0.158771 0.159925 
0.16108 0.162223 0.16334 0.164413 0.165421 0.166336 0.16713 0.167763 0.168198 
0.168377 0.168265 0.167767 0.166872 0.165396 0.138031 0.13947 0.140731 0.141804 
0.142734 0.143537 0.144251 0.144899 0.14551 0.146103 0.146697 0.147307 0.147943 
0.148612 0.149321 0.150073 0.150868 0.151707 0.15259 0.153514 0.154476 0.155472 
0.156497 0.157546 0.158611 0.159684 0.160756 0.161814 0.162844 0.163831 0.164753 
0.165585 0.166301 0.16686 0.16723 0.167351 0.16719 0.166658 0.165738 0.164263 
0.138696 0.140136 0.141393 0.142456 0.143374 0.144161 0.144858 0.145486 0.146076 
0.146646 0.147216 0.147798 0.148405 0.149042 0.149716 0.150429 0.151183 0.151977 
0.152809 0.153679 0.154583 0.155517 0.156476 0.157455 0.158446 0.159443 0.160436 
0.161414 0.162363 0.163269 0.164112 0.164868 0.165512 0.166004 0.166313 0.166382 
0.166177 0.165613 0.164672 0.163197 0.139345 0.140786 0.142038 0.143092 0.143996 
0.144768 0.145447 0.146055 0.146623 0.14717 0.147714 0.14827 0.148847 0.149452 
0.150091 0.150766 0.151478 0.152227 0.153011 0.153829 0.154676 0.15555 0.156445 
0.157357 0.158279 0.159203 0.160122 0.161024 0.161898 0.162729 0.163499 0.164185 
0.164761 0.165193 0.165446 0.165468 0.165223 0.164631 0.16367 0.162196 0.139978 
0.14142 0.142665 0.14371 0.144601 0.145357 0.146017 0.146605 0.147151 0.147674 
0.148193 0.148721 0.149269 0.149842 0.150447 0.151084 0.151755 0.15246 0.153197 
0.153963 0.154756 0.155572 0.156406 0.157254 0.15811 0.158966 0.159814 0.160646 
0.16145 0.162211 0.162913 0.163534 0.164049 0.164425 0.164628 0.164606 0.164325 
0.163707 0.16273 0.161256 0.140593 0.142035 0.143275 0.14431 0.145187 0.145927 
0.146568 0.147136 0.147659 0.148158 0.148652 0.149152 0.14967 0.150212 0.150783 
0.151383 0.152014 0.152676 0.153366 0.154083 0.154824 0.155584 0.15636 0.157147 
0.15794 0.158731 0.159514 0.16028 0.161018 0.161714 0.162353 0.162915 0.163374 
0.163698 0.163855 0.163795 0.163482 0.162841 0.161848 0.160375 0.14119 0.142633 
0.143867 0.144891 0.145754 0.146477 0.147099 0.147646 0.148147 0.148622 0.14909 
0.149563 0.150053 0.150563 0.1511 0.151664 0.152256 0.152875 0.153521 0.15419 
0.15488 0.155587 0.156308 0.157037 0.157771 0.158501 0.159223 0.159926 0.160603 
0.161239 0.161821 0.162327 0.162735 0.163013 0.163128 0.163032 0.16269 0.162028 
0.161022 0.159551 0.141768 0.143211 0.144439 0.145453 0.146302 0.147007 0.14761 
0.148136 0.148614 0.149066 0.149508 0.149955 0.150415 0.150895 0.151398 0.151926 
0.152481 0.153059 0.153662 0.154285 0.154927 0.155583 0.156251 0.156926 0.157602 
0.158276 0.158939 0.159586 0.160205 0.160786 0.161314 0.16177 0.162131 0.162366 
0.162444 0.162317 0.161948 0.161268 0.16025 0.15878 0.142327 0.143769 0.144991 
0.145994 0.146828 0.147517 0.1481 0.148605 0.149061 0.149489 0.149906 0.150326 
0.150758 0.151207 0.151678 0.152172 0.152689 0.153229 0.153789 0.154369 0.154964 
0.155572 0.15619 0.156813 0.157436 0.158056 0.158666 0.159258 0.159824 0.160354 
0.160833 0.161242 0.161561 0.161758 0.161802 0.161646 0.161253 0.160558 0.159529 
0.15806 0.142865 0.144308 0.145522 0.146515 0.147335 0.148006 0.14857 0.149054 
0.149487 0.149891 0.150284 0.150678 0.151082 0.151502 0.151941 0.152401 0.152883 
0.153384 0.153905 0.154442 0.154993 0.155555 0.156125 0.156699 0.157273 0.157843 
0.158402 0.158944 0.159461 0.159943 0.160377 0.160744 0.161024 0.161185 0.161199 
0.161017 0.160604 0.159894 0.158856 0.15739 0.143383 0.144826 0.146033 0.147015 
0.14782 0.148474 0.149018 0.149481 0.149893 0.150273 0.150642 0.15101 0.151387 
0.151778 0.152187 0.152615 0.153062 0.153527 0.154009 0.154505 0.155014 0.155533 
0.156058 0.156586 0.157113 0.157636 0.158148 0.158643 0.159115 0.159553 0.159945 
0.160274 0.160518 0.160648 0.160634 0.16043 0.159999 0.159277 0.158231 0.156766 
0.143881 0.145323 0.146524 0.147495 0.148284 0.14892 0.149445 0.149888 0.150277 
0.150635 0.15098 0.151323 0.151673 0.152037 0.152416 0.152812 0.153226 0.153657 
0.154102 0.15456 0.155029 0.155507 0.155989 0.156474 0.156958 0.157436 0.157904 
0.158356 0.158786 0.159184 0.159538 0.159831 0.160043 0.160145 0.160106 0.159882 
0.159435 0.158702 0.157649 0.156187 0.144359 0.1458 0.146993 0.147953 0.148727 
0.149346 0.149851 0.150273 0.150641 0.150977 0.151298 0.151617 0.151942 0.152278 
0.152629 0.152996 0.153378 0.153775 0.154185 0.154607 0.155038 0.155477 0.15592 
0.156364 0.156806 0.157243 0.157671 0.158083 0.158474 0.158835 0.159154 0.159414 
0.159597 0.159674 0.159614 0.159372 0.158911 0.158169 0.157111 0.15565 0.144815 
0.146255 0.147441 0.148389 0.149148 0.14975 0.150236 0.150638 0.150985 0.151299 
0.151597 0.151893 0.152193 0.152504 0.152827 0.153165 0.153517 0.153882 0.154259 
0.154646 0.155042 0.155444 0.155849 0.156255 0.15666 0.157058 0.157448 0.157823 
0.158179 0.158505 0.158792 0.159023 0.15918 0.159234 0.159155 0.158898 0.158425 
0.157675 0.156612 0.155154 0.145251 0.14669 0.147869 0.148805 0.149549 0.150133 
0.1506 0.150982 0.151308 0.151601 0.151878 0.15215 0.152427 0.152713 0.15301 
0.15332 0.153644 0.153979 0.154324 0.154679 0.155041 0.155409 0.155779 0.15615 
0.156518 0.156881 0.157236 0.157577 0.157899 0.158194 0.158452 0.158657 0.15879 
0.158824 0.158728 0.158458 0.157975 0.157219 0.156153 0.154697 0.145667 0.147105 
0.148275 0.1492 0.149928 0.150495 0.150944 0.151306 0.151612 0.151884 0.15214 
0.152391 0.152645 0.152907 0.153179 0.153463 0.153759 0.154066 0.154382 0.154706 
0.155036 0.155371 0.155709 0.156046 0.156382 0.156712 0.157034 0.157344 0.157635 
0.157902 0.158133 0.158314 0.158426 0.158442 0.158331 0.15805 0.157559 0.156799 
0.15573 0.154277 0.146063 0.147499 0.148662 0.149575 0.150287 0.150837 0.151267 
0.15161 0.151897 0.152149 0.152384 0.152614 0.152846 0.153085 0.153334 0.153594 
0.153864 0.154143 0.154432 0.154727 0.155028 0.155333 0.15564 0.155946 0.156251 
0.156551 0.156843 0.157123 0.157387 0.157627 0.157834 0.157994 0.158087 0.158087 
0.157964 0.157674 0.157177 0.156413 0.155343 0.153892 0.146439 0.147874 0.149028 
0.149929 0.150626 0.151159 0.15157 0.151894 0.152162 0.152395 0.152611 0.15282 
0.153032 0.15325 0.153477 0.153713 0.153958 0.154213 0.154475 0.154743 0.155017 
0.155293 0.155572 0.15585 0.156126 0.156397 0.156661 0.156915 0.157154 0.15737 
0.157555 0.157695 0.157772 0.157758 0.157625 0.157328 0.156825 0.156059 0.154988 
0.153541 0.146796 0.148229 0.149375 0.150263 0.150945 0.15146 0.151854 0.15216 
0.152409 0.152623 0.15282 0.153011 0.153203 0.153401 0.153607 0.153821 0.154043 
0.154274 0.154512 0.154755 0.155002 0.155253 0.155505 0.155756 0.156006 0.156251 
0.15649 0.156719 0.156934 0.157129 0.157294 0.157417 0.157479 0.157454 0.157312 
0.157009 0.156503 0.155737 0.154666 0.153221 0.147135 0.148565 0.149702 0.150578 
0.151245 0.151743 0.152118 0.152406 0.152637 0.152834 0.153013 0.153186 0.15336 
0.153539 0.153725 0.153918 0.154119 0.154328 0.154543 0.154762 0.154986 0.155212 
0.15544 0.155667 0.155892 0.156113 0.156329 0.156535 0.156729 0.156904 0.157051 
0.157158 0.157208 0.157173 0.157024 0.156717 0.156209 0.155443 0.154373 0.152932 
0.147455 0.148883 0.150012 0.150875 0.151526 0.152007 0.152365 0.152635 0.152849 
0.153029 0.153191 0.153347 0.153503 0.153664 0.153831 0.154006 0.154187 0.154375 
0.154568 0.154766 0.154967 0.155171 0.155376 0.15558 0.155783 0.155982 0.156176 
0.156362 0.156537 0.156694 0.156825 0.156919 0.156957 0.156914 0.156759 0.15645 
0.155942 0.155178 0.15411 0.152672 0.147759 0.149183 0.150303 0.151153 0.151788 
0.152252 0.152593 0.152846 0.153043 0.153207 0.153353 0.153493 0.153633 0.153777 
0.153927 0.154084 0.154246 0.154415 0.154589 0.154766 0.154947 0.15513 0.155314 
0.155498 0.15568 0.155859 0.156033 0.1562 0.156357 0.156498 0.156615 0.156696 
0.156725 0.156676 0.156518 0.156208 0.155701 0.154939 0.153873 0.152439 0.148046 
0.149467 0.150578 0.151415 0.152033 0.152481 0.152804 0.15304 0.153222 0.15337 
0.153501 0.153626 0.153751 0.153879 0.154013 0.154153 0.154298 0.154449 0.154604 
0.154764 0.154926 0.155089 0.155254 0.155419 0.155582 0.155742 0.155899 0.156049 
0.156189 0.156316 0.15642 0.156491 0.156511 0.156457 0.156297 0.155987 0.155483 
0.154725 0.153663 0.152233 0.148317 0.149736 0.150836 0.151659 0.152262 0.152692 
0.152998 0.153219 0.153384 0.153518 0.153635 0.153746 0.153857 0.15397 0.154089 
0.154214 0.154343 0.154478 0.154616 0.154758 0.154903 0.155049 0.155196 0.155343 
0.155489 0.155633 0.155773 0.155907 0.156033 0.156146 0.156239 0.1563 0.156315 
0.156257 0.156096 0.155788 0.155288 0.154534 0.153477 0.152051 0.148575 0.149989 
0.151079 0.151888 0.152474 0.152887 0.153177 0.153381 0.153532 0.153652 0.153756 
0.153853 0.153951 0.154051 0.154156 0.154266 0.154381 0.154501 0.154624 0.15475 
0.154879 0.155009 0.15514 0.155271 0.155401 0.155529 0.155654 0.155775 0.155887 
0.155989 0.156071 0.156125 0.156134 0.156073 0.155913 0.155609 0.155114 0.154366 
0.153314 0.151893 0.148818 0.150228 0.151308 0.152103 0.152672 0.153067 0.15334 
0.153529 0.153666 0.153772 0.153864 0.153949 0.154035 0.154123 0.154215 0.154312 
0.154413 0.154519 0.154628 0.15474 0.154854 0.154969 0.155085 0.155202 0.155318 
0.155432 0.155543 0.155651 0.155752 0.155842 0.155916 0.155963 0.155968 0.155906 
0.155748 0.155448 0.154959 0.15422 0.153174 0.151757 0.149049 0.150455 0.151523 
0.152303 0.152854 0.153233 0.153489 0.153663 0.153786 0.15388 0.15396 0.154034 
0.154108 0.154185 0.154266 0.154351 0.15444 0.154532 0.154628 0.154727 0.154828 
0.15493 0.155033 0.155136 0.155239 0.15534 0.15544 0.155535 0.155626 0.155707 
0.155773 0.155814 0.155816 0.155754 0.155599 0.155305 0.154824 0.154093 0.153054 
0.151643 0.149269 0.150669 0.151726 0.152489 0.153023 0.153384 0.153624 0.153783 
0.153893 0.153975 0.154044 0.154108 0.154172 0.154238 0.154309 0.154383 0.15446 
0.154542 0.154626 0.154712 0.154801 0.154891 0.154982 0.155073 0.155164 0.155254 
0.155342 0.155428 0.155508 0.155581 0.15564 0.155677 0.155676 0.155616 0.155464 
0.155178 0.154706 0.153985 0.152954 0.151549 0.149478 0.150873 0.151917 0.152664 
0.15318 0.153522 0.153746 0.15389 0.153988 0.154059 0.154118 0.154172 0.154227 
0.154284 0.154344 0.154408 0.154476 0.154547 0.15462 0.154696 0.154774 0.154853 
0.154932 0.155013 0.155093 0.155173 0.155251 0.155327 0.155399 0.155464 0.155518 
0.15555 0.155548 0.15549 0.155344 0.155067 0.154605 0.153895 0.152874 0.151474 
0.149678 0.151067 0.152097 0.152827 0.153324 0.153648 0.153855 0.153986 0.154071 
0.154132 0.154182 0.154227 0.154273 0.154322 0.154373 0.154429 0.154487 0.154548 
0.154612 0.154678 0.154746 0.154815 0.154885 0.154955 0.155026 0.155096 0.155165 
0.155233 0.155297 0.155356 0.155404 0.155434 0.155432 0.155376 0.155236 0.154969 
0.154519 0.153822 0.152811 0.151418 0.14987 0.151252 0.152268 0.152979 0.153456 
0.153762 0.153953 0.15407 0.154144 0.154195 0.154236 0.154274 0.154312 0.154353 
0.154396 0.154443 0.154493 0.154546 0.154601 0.154658 0.154717 0.154777 0.154838 
0.1549 0.154962 0.155024 0.155085 0.155145 0.155203 0.155255 0.155299 0.155326 
0.155324 0.155273 0.15514 0.154884 0.154448 0.153764 0.152765 0.15138 0.150056 
0.15143 0.15243 0.153122 0.153578 0.153865 0.154039 0.154143 0.154206 0.154248 
0.154281 0.154312 0.154343 0.154377 0.154413 0.154453 0.154496 0.154541 0.154588 
0.154637 0.154688 0.15474 0.154793 0.154847 0.154901 0.154955 0.155009 0.155063 
0.155114 0.155162 0.155202 0.155227 0.155226 0.155179 0.155055 0.154811 0.15439 
0.153722 0.152736 0.151358 0.150236 0.151601 0.152585 0.153255 0.15369 0.153957 
0.154115 0.154206 0.154259 0.154292 0.154318 0.154342 0.154367 0.154395 0.154425 
0.154458 0.154494 0.154532 0.154572 0.154614 0.154658 0.154703 0.154749 0.154796 
0.154843 0.15489 0.154938 0.154985 0.155031 0.155074 0.155111 0.155135 0.155136 
0.155093 0.154979 0.154748 0.154344 0.153694 0.152722 0.151354 0.150411 0.151767 
0.152732 0.153381 0.153792 0.15404 0.154181 0.154259 0.154302 0.154328 0.154347 
0.154366 0.154385 0.154407 0.154431 0.154459 0.154489 0.154521 0.154555 0.15459 
0.154628 0.154666 0.154706 0.154746 0.154787 0.154829 0.154871 0.154913 0.154954 
0.154993 0.155027 0.15505 0.155053 0.155016 0.154911 0.154695 0.154309 0.153678 
0.152724 0.151365 0.150584 0.151929 0.152874 0.153498 0.153886 0.154112 0.154237 
0.154303 0.154337 0.154356 0.154369 0.154382 0.154397 0.154414 0.154433 0.154455 
0.15448 0.154507 0.154535 0.154565 0.154597 0.15463 0.154664 0.154698 0.154734 
0.15477 0.154807 0.154844 0.154881 0.154917 0.154948 0.154971 0.154976 0.154945 
0.154851 0.154651 0.154285 0.153676 0.15274 0.151392 0.150755 0.152088 0.153011 
0.153609 0.153971 0.154176 0.154284 0.154338 0.154363 0.154376 0.154384 0.154393 
0.154403 0.154416 0.154431 0.154448 0.154468 0.15449 0.154514 0.154539 0.154565 
0.154593 0.154622 0.154652 0.154683 0.154714 0.154747 0.154779 0.154812 0.154845 
0.154874 0.154897 0.154904 0.15488 0.154797 0.154614 0.15427 0.153685 0.15277 
0.151435 0.150926 0.152246 0.153143 0.153712 0.154048 0.154231 0.154323 0.154365 
0.154382 0.154389 0.154393 0.154398 0.154404 0.154413 0.154424 0.154438 0.154453 
0.154471 0.15449 0.154511 0.154533 0.154557 0.154581 0.154607 0.154633 0.154661 
0.154689 0.154718 0.154748 0.154777 0.154805 0.154827 0.154837 0.154819 0.154749 
0.154584 0.154264 0.153705 0.152814 0.151493 0.151099 0.152403 0.153272 0.15381 
0.154117 0.154278 0.154353 0.154384 0.154394 0.154396 0.154396 0.154397 0.1544 
0.154406 0.154414 0.154424 0.154436 0.15445 0.154465 0.154482 0.154501 0.15452 
0.154541 0.154563 0.154585 0.154609 0.154634 0.154659 0.154686 0.154713 0.154739 
0.154762 0.154774 0.154763 0.154705 0.154559 0.154265 0.153736 0.152871 0.151566 
0.151275 0.15256 0.153399 0.153902 0.154178 0.154316 0.154376 0.154396 0.1544 
0.154397 0.154393 0.154392 0.154392 0.154395 0.1544 0.154407 0.154416 0.154427 
0.154439 0.154453 0.154468 0.154484 0.154501 0.154519 0.154539 0.154559 0.154581 
0.154603 0.154627 0.154652 0.154677 0.154699 0.154714 0.154709 0.154664 0.154539 
0.154273 0.153776 0.152942 0.151656 0.151456 0.15272 0.153522 0.153987 0.154232 
0.154346 0.15439 0.154401 0.154399 0.154392 0.154386 0.154382 0.15438 0.15438 
0.154383 0.154388 0.154394 0.154402 0.154411 0.154422 0.154434 0.154447 0.154462 
0.154477 0.154493 0.154511 0.15453 0.15455 0.154571 0.154594 0.154617 0.154639 
0.154656 0.154658 0.154625 0.154521 0.154285 0.153826 0.153027 0.151762 0.151645 
0.152883 0.153643 0.154067 0.154277 0.154367 0.154397 0.154399 0.154392 0.154382 
0.154374 0.154368 0.154364 0.154362 0.154363 0.154366 0.15437 0.154376 0.154383 
0.154391 0.1544 0.154411 0.154423 0.154435 0.154449 0.154464 0.154481 0.154498 
0.154517 0.154538 0.15456 0.154582 0.154601 0.154608 0.154588 0.154505 0.154302 
0.153883 0.153125 0.151886 0.151843 0.15305 0.153762 0.154139 0.154313 0.15438 
0.154396 0.154391 0.154379 0.154367 0.154357 0.15435 0.154345 0.154342 0.154341 
0.154342 0.154344 0.154348 0.154353 0.154359 0.154367 0.154375 0.154384 0.154395 
0.154406 0.154419 0.154433 0.154448 0.154465 0.154484 0.154504 0.154526 0.154546 
0.154559 0.154551 0.15449 0.154321 0.153947 0.153237 0.152029 0.152054 0.153222 
0.153878 0.154203 0.15434 0.154384 0.154387 0.154376 0.154361 0.154348 0.154337 
0.154329 0.154323 0.154319 0.154317 0.154316 0.154317 0.15432 0.154323 0.154328 
0.154333 0.15434 0.154347 0.154355 0.154365 0.154375 0.154387 0.1544 0.154415 
0.154432 0.154451 0.154471 0.154493 0.15451 0.154512 0.154472 0.154339 0.154017 
0.153362 0.152193 0.152281 0.1534 0.153989 0.154257 0.154356 0.154379 0.154371 
0.154355 0.154338 0.154324 0.154313 0.154305 0.154298 0.154294 0.154291 0.15429 
0.15429 0.154291 0.154293 0.154296 0.1543 0.154305 0.154311 0.154317 0.154325 
0.154333 0.154343 0.154354 0.154367 0.154382 0.154399 0.154418 0.154439 0.154459 
0.154471 0.154451 0.154355 0.154089 0.153501 0.152381 0.152528 0.153584 0.154092 
0.154298 0.154359 0.154363 0.154347 0.154328 0.154311 0.154297 0.154287 0.154278 
0.154272 0.154268 0.154265 0.154263 0.154263 0.154263 0.154264 0.154266 0.154269 
0.154272 0.154276 0.154281 0.154287 0.154294 0.154302 0.154311 0.154321 0.154334 
0.154348 0.154366 0.154386 0.154408 0.154426 0.154424 0.154365 0.15416 0.153653 
0.152597 0.152804 0.153772 0.154182 0.154322 0.154348 0.154337 0.154316 0.154296 
0.15428 0.154267 0.154258 0.154251 0.154245 0.154241 0.154239 0.154237 0.154236 
0.154236 0.154236 0.154238 0.154239 0.154242 0.154244 0.154248 0.154252 0.154257 
0.154263 0.154269 0.154277 0.154287 0.154299 0.154314 0.154332 0.154353 0.154376 
0.154389 0.154364 0.154225 0.153815 0.152847 0.15311 0.153954 0.154249 0.154324 
0.154321 0.1543 0.154278 0.15426 0.154247 0.154237 0.15423 0.154224 0.15422 
0.154217 0.154215 0.154214 0.154213 0.154212 0.154213 0.154213 0.154214 0.154215 
0.154217 0.154219 0.154222 0.154225 0.154229 0.154233 0.154239 0.154246 0.154254 
0.154265 0.15428 0.154299 0.154321 0.154343 0.154347 0.154272 0.153978 0.153133 
0.153478 0.154125 0.154282 0.154295 0.154273 0.15425 0.154232 0.154219 0.154211 
0.154205 0.154201 0.154198 0.154196 0.154194 0.154193 0.154193 0.154192 0.154192 
0.154192 0.154192 0.154193 0.154193 0.154194 0.154195 0.154196 0.154197 0.154199 
0.154201 0.154204 0.154207 0.154212 0.154218 0.154227 0.15424 0.154258 0.154282 
0.154304 0.154291 0.154134 0.153487 0.153847 0.154218 0.154259 0.154242 0.154221 
0.154205 0.154196 0.154189 0.154186 0.154184 0.154182 0.154181 0.154181 0.154181 
0.15418 0.15418 0.15418 0.15418 0.15418 0.15418 0.15418 0.15418 0.15418 
0.15418 0.154181 0.154181 0.154181 0.154182 0.154182 0.154183 0.154185 0.154187 
0.154191 0.154197 0.154207 0.154222 0.154244 0.15426 0.154219 0.153848 
Water_Depth_m 1 12320 float
1 1 1 1 1 1 1 1 1 
1.00001 1.00001 1.00001 1.00001 1.00001 1.00001 1.00001 1.00001 1.00002 
1.00002 1.00002 1.00002 1.00002 1.00002 1.00002 1.00001 1.00001 1.00001 
1 0.999997 0.999992 0.999986 0.99998 0.999974 0.999968 0.999963 0.999959 
0.999955 0.999952 0.999951 0.999948 1 1 1 1 1 
0.999999 0.999999 0.999999 0.999999 0.999998 0.999998 0.999998 0.999997 0.999997 
0.999996 0.999996 0.999996 0.999996 0.999996 0.999996 0.999996 0.999997 0.999997 
0.999998 0.999999 1 1 1 1 1 1.00001 1.00001 
1.00001 1.00001 1.00001 1.00001 1.00001 1.00001 1.00001 1.00001 1 
1 1 1 1 1 1 1 1 1 
1.00001 1.00001 1.00001 1.00001 1.00001 1.00001 1.00001 1.00001 1.00001 
1.00001 1.00001 1.00001 1.00001 1.00001 1.00001 1.00001 1.00001 1 
1 1 0.999999 0.999997 0.999995 0.999994 0.999992 0.999991 0.99999 
0.999988 0.999989 0.999986 1 1 1 1 1 1 
1 1 1 1 1 1 1 1 1 
1 1 1 1 1 1 1 1 1 
1 1 1 1 1.00001 1.00001 1.00001 1.00001 1.00001 
1.00001 1.00001 1.00001 1.00001 1.00001 1.00001 1 1 1 
1 1 1 1 1 1 1 1 1.00001 
1.00001 1.00001 1.00001 1.00001 1.00001 1.00001 1.00001 1.00001 1.00001 
1.00001 1.00001 1.00001 1.00001 1.00001 1.00001 1.00001 1.00001 1.00001 
1 1 1 1 1 1 1 1 1 
1 0.999999 1 1 1 1 1 1 1 
1 1 1 1 1 1 1 1 1 
1 1 1 1 1 1 1 1.00001 1.00001 
1.00001 1.00001 1.00001 1.00001 1.00001 1.00001 1.00001 1.00001 1.00001 
1.00001 1.00001 1.00001 1.00001 1.00001 1.00001 1 1 1 
1 1 1.00001 1.00001 1.00001 1.00001 1.00001 1.00001 1.00001 
1.00001 1.00001 1.00001 1.00001 1.00001 1.00001 1.00001 1.00001 1.00001 
1.00001 1.00001 1.00001 1.00001 1.00001 1.00001 1.00001 1.00001 1.00001 
1.00001 1.00001 1.00001 1.00001 1.00001 1.00001 1.00001 1.00001 1.00001 
1 1 1 1 1 1 1 1 1 
1 1 1 1 1 1 1.00001 1.00001 1.00001 
1.00001 1.00001 1.00001 1.00001 1.00001 1.00001 1.00001 1.00001 1.00001 
1.00001 1.00001 1.00001 1.00001 1.00001 1.00001 1.00001 1.00001 1.00001 
1.00001 1.00001 1.00001 1.00001 1.00001 1.00001 1.00001 1.00001 1.00001 
1.00001 1.00001 1.00001 1.00001 1.00001 1.00001 1.00001 1.00001 1.00001 
1.00001 1.00001 1.00001 1.00001 1.00001 1.00001 1.00001 1.00001 1.00001 
1.00001 1.00001 1.00001 1.00001 1.00001 1.00001 1.00001 1.00001 1.00001 
1.00001 1.00001 1.00001 1.00001 1.00001 1.00001 1.00001 1.00001 1.00001 
1.00001 1.00001 1.00001 1.00001 1.00001 1.00001 1.00001 1.00001 1.00001 
1.00001 1.00001 1.00001 1.00001 1.00001 1.00001 1.00001 1.00001 1.00001 
1.00001 1.00001 1.00001 1.00001 1.00001 1.00001 1.00001 1.00001 1.00001 
1.00001 1.00001 1.00001 1.00001 1.00001 1.00001 1.00001 1.00001 1.00001 
1.00001 1.00001 1.00001 1.00001 1.00001 1.00001 1.00001 1.00001 1.00001 
1.00001 1.00001 1.00001 1.00001 1.00001 1.00001 1.00001 1.00001 1.00001 
1.00001 1.00001 1.00001 1.00001 1.00001 1.00001 1.00001 1.00001 1.00001 
1.00001 1.00001 1.00001 1.00001 1.00001 1.00001 1.00001 1.00001 1.00001 
1.00001 1.00001 1.00001 1.00001 1.00001 1.00001 1.00001 1.00001 1.00001 
1.00001 1.00001 1.00001 1.00001 1.00001 1.00001 1.00001 1.00001 1.00001 
1.00001 1.00001 1.00001 1.00001 1.00001 1.00001 1.00001 1.00001 1.00001 
1.00001 1.00001 1.00001 1.00001 1.00001 1.00001 1.00001 1.00001 1.00001 
1.00001 1.00001 1.00001 1.00001 1.00001 1.00001 1.00001 1.00001 1.00001 
1.00001 1.00001 1.00001 1.00001 1.00001 1.00001 1.00001 1.00001 1.00001 
1.00001 1.00001 1.00001 1.00001 1.00001 1.00001 1.00001 1.00001 1.00001 
1.00001 1.00001 1.00001 1.00001 1.00001 1.00001 1.00001 1.00001 1.00001 
1.00001 1.00001 1.00001 1.00001 1.00001 1.00001 1.00001 1.00001 1.00001 
1.00001 1.00001 1.00001 1.00001 1.00001 1.00001 1.00001 1.00001 1.00001 
1.00001 1.00001 1.00001 1.00001 1.00001 1.00001 1.00001 1.00001 1.00001 
1.00001 1.00001 1.00001 1.00001 1.00001 1.00001 1.00001 1.00001 1.00001 
1.00001 1.00001 1.00001 1.00001 1.00001 1.00001 1.00001 1.00001 1.00001 
1.00001 1.00001 1.00001 1.00001 1.00001 1.00001 1.00001 1.00001 1.00001 
1.00001 1.00001 1.00001 1.00001 1.00001 1.00001 1.00001 1.00001 1.00001 
1.00001 1.00001 1.00001 1.00001 1.00001 1.00001 1.00001 1.00001 1.00001 
1.00001 1.00001 1.00001 1.00001 1.00001 1.00001 1.00001 1.00001 1.00001 
1.00001 1.00001 1.00001 1.00001 1.00001 1.00001 1.00001 1.00001 1.00001 
1.00001 1.00001 1.00001 1.00001 1.00002 1.00001 1.00001 1.00001 1.00001 
1.00001 1.00001 1.00001 1.00001 1.00001 1.00001 1.00001 1.00001 1.00001 
1.00001 1.00001 1.00001 1.00001 1.00001 1.00001 1.00001 1.00001 1.00001 
1.00001 1.00001 1.00001 1.00001 1.00001 1.00001 1.00001 1.00001 1.00001 
1.00001 1.00001 1.00001 1.00001 1.00001 1.00001 1.00001 1.00001 1.00002 
1.00001 1.00001 1.00001 1.00001 1.00001 1.00001 1.00001 1.00001 1.00001 
1.00001 1.00001 1.00001 1.00001 1.00001 1.00001 1.00001 1.00001 1.00001 
1.00001 1.00001 1.00001 1.00001 1.00001 1.00001 1.00001 1.00001 1.00001 
1.00001 1.00001 1.00001 1.00001 1.00001 1.00001 1.00001 1.00001 1.00001 
1.00001 1.00002 1.00001 1.00002 1.00001 1.00001 1.00001 1.00001 1.00001 
1.00001 1.00001 1.00001 1.00001 1.00001 1.00001 1.00001 1.00001 1.00001 
1.00001 1.00001 1.00001 1.00001 1.00001 1.00001 1.00001 1.00001 1.00001 
1.00001 1.00001 1.00001 1.00001 1.00001 1.00001 1.00001 1.00001 1.00001 
1.00001 1.00001 1.00001 1.00001 1.00001 1.00002 1.00001 1.00002 1.00001 
1.00001 1.00001 1.00001 1.00001 1.00001 1.00001 1.00001 1.00001 1.00001 
1.00001 1.00001 1.00001 1.00001 1.00001 1.00001 1.00001 1.00001 1.00001 
1.00001 1.00001 1.00001 1.00001 1.00001 1.00001 1.00001 1.00001 1.00001 
1.00001 1.00001 1.00001 1.00001 1.00001 1.00001 1.00001 1.00002 1.00002 
1.00002 1.00001 1.00002 1.00001 1.00001 1.00001 1.00001 1.00001 1.00001 
1.00001 1.00001 1.00001 1.00001 1.00001 1.00001 1.00001 1.00001 1.00001 
1.00001 1.00001 1.00001 1.00001 1.00001 1.00001 1.00001 1.00001 1.00001 
1.00001 1.00001 1.00001 1.00001 1.00001 1.00001 1.00001 1.00001 1.00001 
1.00001 1.00001 1.00002 1.00002 1.00002 1.00002 1.00002 1.00001 1.00001 
1.00001 1.00001 1.00001 1.00001 1.00001 1.00001 1.00001 1.00001 1.00001 
1.00001 1.00001 1.00001 1.00001 1.00001 1.00001 1.00001 1.00001 1.00001 
1.00001 1.00001 1.00001 1.00001 1.00001 1.00001 1.00001 1.00001 1.00001 
1.00001 1.00001 1.00001 1.00001 1.00001 1.00002 1.00002 1.00002 1.00002 
1.00002 1.00002 1.00001 1.00001 1.00001 1.00001 1.00001 1.00001 1.00001 
1.00001 1.00001 1.00001 1.00001 1.00001 1.00001 1.00001 1.00001 1.00001 
1.00001 1.00001 1.00001 1.00001 1.00001 1.00001 1.00001 1.00001 1.00001 
1.00001 1.00001 1.00001 1.00001 1.00001 1.00001 1.00001 1.00001 1.00001 
1.00002 1.00002 1.00002 1.00002 1.00002 1.00002 1.00001 1.00001 1.00001 
1.00001 1.00001 1.00001 1.00001 1.00001 1.00001 1.00001 1.00001 1.00001 
1.00001 1.00001 1.00001 1.00001 1.00001 1.00001 1.00001 1.00001 1.00001 
1.00001 1.00001 1.00001 1.00001 1.00001 1.00001 1.00001 1.00001 1.00001 
1.00001 1.00001 1.00001 1.00002 1.00002 1.00002 1.00002 1.00002 1.00002 
1.00002 1.00001 1.00001 1.00001 1.00001 1.00001 1.00001 1.00001 1.00001 
1.00001 1.00001 1.00001 1.00001 1.00001 1.00001 1.00001 1.00001 1.00001 
1.00001 1.00001 1.00001 1.00001 1.00001 1.00001 1.00001 1.00001 1.00001 
1.00001 1.00001 1.00001 1.00001 1.00001 1.00001 1.00001 1.00002 1.00002 
1.00002 1.00002 1.00002 1.00002 1.00002 1.00001 1.00001 1.00001 1.00001 
1.00001 1.00001 1.00001 1.00001 1.00001 1.00001 1.00001 1.00001 1.00001 
1.00001 1.00001 1.00001 1.00001 1.00001 1.00001 1.00001 1.00001 1.00001 
1.00001 1.00001 1.00001 1.00001 1.00001 1.00001 1.00001 1.00001 1.00001 
1.00001 1.00001 1.00002 1.00002 1.00002 1.00002 1.00002 1.00002 1.00002 
1.00001 1.00001 1.00001 1.00001 1.00001 1.00001 1.00001 1.00001 1.00001 
1.00001 1.00001 1.00001 1.00001 1.00001 1.00001 1.00001 1.00001 1.00001 
1.00001 1.00001 1.00001 1.00001 1.00001 1.00001 1.00001 1.00001 1.00001 
1.00001 1.00001 1.00001 1.00001 1.00001 1.00001 1.00002 1.00002 1.00002 
1.00002 1.00002 1.00002 1.00002 1.00001 1.00001 1.00001 1.00001 1.00001 
1.00001 1.00001 1.00001 1.00001 1.00001 1.00001 1.00001 1.00001 1.00001 
1.00001 1.00001 1.00001 1.00001 1.00001 1.00001 1.00001 1.00001 1.00001 
1.00001 1.00001 1.00001 1.00001 1.00001 1.00001 1.00001 1.00001 1.00001 
1.00001 1.00002 1.00002 1.00002 1.00002 1.00002 1.00002 1.00002 1.00001 
1.00001 1.00001 1.00001 1.00001 1.00001 1.00001 1.00001 1.00001 1.00001 
1.00001 1.00001 1.00001 1.00001 1.00001 1.00001 1.00001 1.00001 1.00001 
1.00001 1.00001 1.00001 1.00001 1.00001 1.00001 1.00001 1.00001 1.00001 
1.00001 1.00001 1.00001 1.00001 1.00001 1.00002 1.00002 1.00002 1.00002 
1.00002 1.00002 1.00002 1.00001 1.00001 1.00001 1.00001 1.00001 1.00001 
1.00001 1.00001 1.00001 1.00001 1.00001 1.00001 1.00001 1.00001 1.00001 
1.00001 1.00001 1.00001 1.00001 1.00001 1.00001 1.00001 1.00001 1.00001 
1.00001 1.00001 1.00001 1.00001 1.00001 1.00001 1.00001 1.00001 1.00001 
1.00002 1.00002 1.00002 1.00002 1.00002 1.00002 1.00002 1.00001 1.00001 
1.00001 1.00001 1.00001 1.00001 1.00001 1.00001 1.00001 1.00001 1.00001 
1.00001 1.00001 1.00001 1.00001 1.00001 1.00001 1.00001 1.00001 1.00001 
1.00001 1.00001 1.00001 1.00001 1.00001 1.00001 1.00001 1.00001 1.00001 
1.00001 1.00001 1.00001 1.00001 1.00002 1.00002 1.00002 1.00002 1.00002 
1.00002 1.00002 1.00001 1.00001 1.00001 1.00001 1.00001 1.00001 1.00001 
1.00001 1.00001 1.00001 1.00001 1.00001 1.00001 1.00001 1.00001 1.00001 
1.00001 1.00001 1.00001 1.00001 1.00001 1.00001 1.00001 1.00001 1.00001 
1.00001 1.00001 1.00001 1.00001 1.00001 1.00001 1.00001 1.00001 1.00002 
1.00002 1.00002 1.00002 1.00002 1.00002 1.00002 1.00001 1.00001 1.00001 
1.00001 1.00001 1.00001 1.00001 1.00001 1.00001 1.00001 1.00001 1.00001 
1.00001 1.00001 1.00001 1.00001 1.00001 1.00001 1.00001 1.00001 1.00001 
1.00001 1.00001 1.00001 1.00001 1.00001 1.00001 1.00001 1.00001 1.00001 
1.00001 1.00001 1.00001 1.00001 1.00002 1.00002 1.00002 1.00002 1.00002 
1.00002 1.00001 1.00001 1.00001 1.00001 1.00001 1.00001 1.00001 1.00001 
1.00001 1.00001 1.00001 1.00001 1.00001 1.00001 1.00001 1.00001 1.00001 
1.00001 1.00001 1.00001 1.00001 1.00001 1.00001 1.00001 1.00001 1.00001 
1.00001 1.00001 1.00001 1.00001 1.00001 1.00001 1.00001 1.00001 1.00002 
1.00002 1.00002 1.00002 1.00002 1.00002 1.00001 1.00001 1.00001 1.00001 
1.00001 1.00001 1.00001 1.00001 1.00001 1.00001 1.00001 1.00001 1.00001 
1.00001 1.00001 1.00001 1.00001 1.00001 1.00001 1.00001 1.00001 1.00001 
1.00001 1.00001 1.00001 1.00001 1.00001 1.00001 1.00001 1.00001 1.00001 
1.00001 1.00001 1.00001 1.00002 1.00002 1.00002 1.00002 1.00002 1.00002 
1.00001 1.00001 1.00001 1.00001 1.00001 1.00001 1.00001 1.00001 1.00001 
1.00001 1.00001 1.00001 1.00001 1.00001 1.00001 1.00001 1.00001 1.00001 
1.00001 1.00001 1.00001 1.00001 1.00001 1.00001 1.00001 1.00001 1.00001 
1.00001 1.00001 1.00001 1.00001 1.00001 1.00001 1.00001 1.00001 1.00002 
1.00002 1.00002 1.00002 1.00002 1.00001 1.00001 1.00001 1.00001 1.00001 
1.00001 1.00001 1.00001 1.00001 1.00001 1.00001 1.00001 1.00001 1.00001 
1.00001 1.00001 1.00001 1.00001 1.00001 1.00001 1.00001 1.00001 1.00001 
1.00001 1.00001 1.00001 1.00001 1.00001 1.00001 1.00001 1.00001 1.00001 
1.00001 1.00001 1.00001 1.00002 1.00002 1.00002 1.00002 1.00002 1.00001 
1.00001 1.00001 1.00001 1.00001 1.00001 1.00001 1.00001 1.00001 1.00001 
1.00001 1.00001 1.00001 1.00001 1.00001 1.00001 1.00001 1.00001 1.00001 
1.00001 1.00001 1.00001 1.00001 1.00001 1.00001 1.00001 1.00001 1.00001 
1.00001 1.00001 1.00001 1.00001 1.00001 1.00001 1.00001 1.00002 1.00002 
1.00002 1.00002 1.00002 1.00001 1.00001 1.00001 1.00001 1.00001 1.00001 
1.00001 1.00001 1.00001 1.00001 1.00001 1.00001 1.00001 1.00001 1.00001 
1.00001 1.00001 1.00001 1.00001 1.00001 1.00001 1.00001 1.00001 1.00001 
1.00001 1.00001 1.00001 1.00001 1.00001 1.00001 1.00001 1.00001 1.00001 
1.00001 1.00001 1.00002 1.00002 1.00002 1.00001 1.00002 1.00001 1 
1 1 1 1 1 1.00001 1.00001 1.00001 1.00001 
1.00001 1.00001 1.00001 1.00001 1.00001 1.00001 1.00001 1.00001 1.00001 
1.00001 1.00001 1.00001 1.00001 1.00001 1.00001 1.00001 1.00001 1.00001 
1.00001 1.00001 1.00001 1.00001 1.00001 1.00001 1.00001 1.00001 1.00002 
1.00001 1.00002 1.00001 1 1 1 1 1 1 
1 1 1 1 1 1.00001 1.00001 1.00001 1.00001 
1.00001 1.00001 1.00001 1.00001 1.00001 1.00001 1.00001 1.00001 1.00001 
1.00001 1.00001 1.00001 1.00001 1.00001 1.00001 1.00001 1.00001 1.00001 
1.00001 1.00001 1.00001 1.00002 1.00001 1.00002 1.00001 1 1 
1 1 1 1 1 1 1 1 1 
1 1 1 1 1.00001 1.00001 1.00001 1.00001 1.00001 
1.00001 1.00001 1.00001 1.00001 1.00001 1.00001 1.00001 1.00001 1.00001 
1.00001 1.00001 1.00001 1.00001 1.00001 1.00001 1.00001 1.00002 1.00001 
1.00002 1.00001 1 1 1 1 1 1 1 
1 1 1 1 1 1 1 1 1 
1 1 1.00001 1.00001 1.00001 1.00001 1.00001 1.00001 1.00001 
1.00001 1.00001 1.00001 1.00001 1.00001 1.00001 1.00001 1.00001 1.00001 
1.00001 1.00001 1.00002 1.00001 1.00002 1.00001 1 1 1 
1 1 1 1 1 1 1 1 1 
1 1 1 1 1 1 1 1 1 
1.00001 1.00001 1.00001 1.00001 1.00001 1.00001 1.00001 1.00001 1.00001 
1.00001 1.00001 1.00001 1.00001 1.00001 1.00001 1.00002 1.00001 1.00002 
1.00001 1 1 1 1 1 1 1 1 
1 1 1 1 1 1 1 1 1 
1 1 1 1 1 1 1.00001 1.00001 1.00001 
1.00001 1.00001 1.00001 1.00001 1.00001 1.00001 1.00001 1.00001 1.00001 
1.00001 1.00001 1.00001 1.00002 1.00001 1 1 1 1 
1 1 1 1 1 1 1 1 1 
1 1 1 1 1 1 1 1 1 
1 1 1.00001 1.00001 1.00001 1.00001 1.00001 1.00001 1.00001 
1.00001 1.00001 1.00001 1.00001 1.00001 1.00001 1.00001 1.00002 1.00001 
1 1 1 1 1 1 1 1 1 
1 1 1 1 1 1 1 1 1 
1 1 1 1 1 1 1 1.00001 1.00001 
1.00001 1.00001 1.00001 1.00001 1.00001 1.00001 1.00001 1.00001 1.00001 
1.00001 1.00001 1.00002 1.00001 1 1 1 1 1 
1 1 1 1 1 1 1 1 1 
1 1 1 1 1 1 1 1 1 
1 1 1 1.00001 1.00001 1.00001 1.00001 1.00001 1.00001 
1.00001 1.00001 1.00001 1.00001 1.00001 1.00001 1.00002 1.00001 1 
1 1 1 1 1 1 1 1 1 
1 1 1 1 1 1 1 1 1 
1 1 1 1 1 1 1 1 1.00001 
1.00001 1.00001 1.00001 1.00001 1.00001 1.00001 1.00001 1.00001 1.00001 
1.00001 1.00002 1.00001 0.999999 1 1 1 1 1 
1 1 1 1 1 1 1 1 1 
1 1 1 1 1 1 1 1 1 
1 1 1 1.00001 1.00001 1.00001 1.00001 1.00001 1.00001 
1.00001 1.00001 1.00001 1.00001 1.00001 1.00002 1.00001 0.999999 0.999999 
0.999999 0.999999 0.999999 0.999999 0.999999 0.999999 0.999999 0.999999 1 
1 1 1 1 1 1 1 1 1 
1 1 1 1 1 1 1 1 1.00001 
1.00001 1.00001 1.00001 1.00001 1.00001 1.00001 1.00001 1.00001 1.00001 
1.00001 1.00001 0.999998 0.999998 0.999998 0.999998 0.999998 0.999998 0.999999 
0.999999 0.999999 0.999999 0.999999 0.999999 0.999999 0.999999 0.999999 1 
1 1 1 1 1 1 1 1 1 
1 1 1 1 1.00001 1.00001 1.00001 1.00001 1.00001 
1.00001 1.00001 1.00001 1.00001 1.00001 1.00001 0.999997 0.999998 0.999998 
0.999998 0.999998 0.999998 0.999998 0.999998 0.999998 0.999998 0.999998 0.999998 
0.999999 0.999999 0.999999 0.999999 0.999999 0.999999 1 1 1 
1 1 1 1 1 1 1 1 1.00001 
1.00001 1.00001 1.00001 1.00001 1.00001 1.00001 1.00001 1.00001 1.00001 
1.00001 0.999997 0.999997 0.999997 0.999997 0.999997 0.999997 0.999997 0.999997 
0.999997 0.999997 0.999998 0.999998 0.999998 0.999998 0.999998 0.999998 0.999998 
0.999999 0.999999 0.999999 0.999999 0.999999 1 1 1 1 
1 1 1 1 1.00001 1.00001 1.00001 1.00001 1.00001 
1.00001 1.00001 1.00001 1.00001 1.00001 0.999996 0.999996 0.999996 0.999996 
0.999996 0.999996 0.999996 0.999997 0.999997 0.999997 0.999997 0.999997 0.999997 
0.999997 0.999997 0.999998 0.999998 0.999998 0.999998 0.999998 0.999999 0.999999 
0.999999 0.999999 1 1 1 1 1 1 1.00001 
1.00001 1.00001 1.00001 1.00001 1.00001 1.00001 1.00001 1.00001 1.00001 
0.999995 0.999996 0.999995 0.999996 0.999996 0.999996 0.999996 0.999996 0.999996 
0.999996 0.999996 0.999996 0.999996 0.999997 0.999997 0.999997 0.999997 0.999997 
0.999997 0.999998 0.999998 0.999998 0.999999 0.999999 0.999999 0.999999 1 
1 1 1 1 1.00001 1.00001 1.00001 1.00001 1.00001 
1.00001 1.00001 1.00001 1.00001 0.999995 0.999995 0.999995 0.999995 0.999995 
0.999995 0.999995 0.999995 0.999995 0.999995 0.999995 0.999996 0.999996 0.999996 
0.999996 0.999996 0.999996 0.999997 0.999997 0.999997 0.999997 0.999997 0.999998 
0.999998 0.999999 0.999999 1 1 1 1 1 1.00001 
1.00001 1.00001 1.00001 1.00001 1.00001 1.00001 1.00001 1.00001 0.999994 
0.999994 0.999994 0.999994 0.999994 0.999994 0.999994 0.999994 0.999994 0.999995 
0.999995 0.999995 0.999995 0.999995 0.999995 0.999995 0.999996 0.999996 0.999996 
0.999996 0.999996 0.999997 0.999997 0.999997 0.999998 0.999998 0.999999 1 
1 1 1 1 1.00001 1.00001 1.00001 1.00001 1.00001 
1.00001 1.00001 1.00001 0.999993 0.999993 0.999993 0.999993 0.999993 0.999993 
0.999993 0.999994 0.999994 0.999994 0.999994 0.999994 0.999994 0.999994 0.999994 
0.999995 0.999995 0.999995 0.999995 0.999996 0.999996 0.999996 0.999996 0.999997 
0.999997 0.999998 0.999998 0.999999 1 1 1 1 1.00001 
1.00001 1.00001 1.00001 1.00001 1.00001 1.00001 1 0.999992 0.999992 
0.999992 0.999992 0.999992 0.999992 0.999993 0.999993 0.999993 0.999993 0.999993 
0.999993 0.999993 0.999994 0.999994 0.999994 0.999994 0.999994 0.999995 0.999995 
0.999995 0.999995 0.999996 0.999996 0.999996 0.999997 0.999997 0.999999 0.999999 
1 1 1 1 1.00001 1.00001 1.00001 1.00001 1.00001 
1.00001 1 0.999991 0.999992 0.999991 0.999992 0.999992 0.999992 0.999992 
0.999992 0.999992 0.999992 0.999992 0.999992 0.999992 0.999993 0.999993 0.999993 
0.999993 0.999994 0.999994 0.999994 0.999994 0.999995 0.999995 0.999995 0.999995 
0.999996 0.999996 0.999998 0.999999 1 1 1 1 1 
1.00001 1.00001 1.00001 1.00001 1.00001 1 0.99999 0.999991 0.999991 
0.999991 0.999991 0.999991 0.999991 0.999991 0.999991 0.999991 0.999991 0.999992 
0.999992 0.999992 0.999992 0.999992 0.999992 0.999993 0.999993 0.999993 0.999993 
0.999994 0.999994 0.999994 0.999995 0.999995 0.999996 0.999997 0.999998 0.999999 
1 1 1 1 1.00001 1.00001 1.00001 1.00001 1.00001 
1 0.99999 0.99999 0.99999 0.99999 0.99999 0.99999 0.99999 0.99999 
0.99999 0.99999 0.999991 0.999991 0.999991 0.999991 0.999991 0.999991 0.999992 
0.999992 0.999992 0.999992 0.999993 0.999993 0.999993 0.999994 0.999994 0.999995 
0.999995 0.999996 0.999997 0.999999 1 1 1 1 1 
1.00001 1.00001 1.00001 1.00001 1 0.999989 0.999989 0.999989 0.999989 
0.999989 0.999989 0.999989 0.999989 0.999989 0.99999 0.99999 0.99999 0.99999 
0.99999 0.99999 0.999991 0.999991 0.999991 0.999991 0.999992 0.999992 0.999992 
0.999992 0.999993 0.999993 0.999994 0.999994 0.999996 0.999996 0.999998 0.999999 
1 1 1 1 1 1.00001 1 1.00001 1 
0.999988 0.999988 0.999988 0.999988 0.999988 0.999988 0.999988 0.999988 0.999988 
0.999989 0.999989 0.999989 0.999989 0.999989 0.999989 0.99999 0.99999 0.99999 
0.99999 0.999991 0.999991 0.999991 0.999992 0.999992 0.999992 0.999993 0.999993 
0.999995 0.999996 0.999997 0.999998 1 1 1 1 1 
1.00001 1 1.00001 1 0.999987 0.999987 0.999987 0.999987 0.999987 
0.999987 0.999987 0.999987 0.999987 0.999988 0.999988 0.999988 0.999988 0.999988 
0.999989 0.999989 0.999989 0.999989 0.99999 0.99999 0.99999 0.99999 0.999991 
0.999991 0.999991 0.999992 0.999992 0.999994 0.999995 0.999996 0.999998 0.999999 
1 1 1 1 1.00001 1 1.00001 1 0.999986 
0.999986 0.999986 0.999986 0.999986 0.999986 0.999986 0.999986 0.999987 0.999987 
0.999987 0.999987 0.999987 0.999987 0.999988 0.999988 0.999988 0.999988 0.999989 
0.999989 0.999989 0.99999 0.99999 0.99999 0.999991 0.999991 0.999992 0.999993 
0.999994 0.999995 0.999997 0.999998 1 1 1 1 1 
1 1.00001 1 0.999985 0.999985 0.999985 0.999985 0.999985 0.999985 
0.999985 0.999986 0.999986 0.999986 0.999986 0.999986 0.999986 0.999987 0.999987 
0.999987 0.999987 0.999987 0.999988 0.999988 0.999988 0.999989 0.999989 0.999989 
0.99999 0.99999 0.999991 0.999992 0.999993 0.999994 0.999996 0.999997 0.999999 
1 1 1 1 1 1.00001 0.999999 0.999984 0.999984 
0.999984 0.999984 0.999984 0.999984 0.999984 0.999985 0.999985 0.999985 0.999985 
0.999985 0.999985 0.999986 0.999986 0.999986 0.999986 0.999987 0.999987 0.999987 
0.999987 0.999988 0.999988 0.999988 0.999989 0.999989 0.99999 0.999991 0.999992 
0.999993 0.999995 0.999997 0.999998 0.999999 1 1 1 1 
1.00001 0.999998 0.999983 0.999983 0.999983 0.999983 0.999983 0.999983 0.999983 
0.999983 0.999984 0.999984 0.999984 0.999984 0.999984 0.999985 0.999985 0.999985 
0.999985 0.999986 0.999986 0.999986 0.999987 0.999987 0.999987 0.999987 0.999988 
0.999988 0.999989 0.99999 0.999992 0.999993 0.999994 0.999996 0.999997 0.999999 
1 1 1 1 1.00001 0.999998 0.999982 0.999982 0.999982 
0.999982 0.999982 0.999982 0.999982 0.999982 0.999983 0.999983 0.999983 0.999983 
0.999983 0.999984 0.999984 0.999984 0.999984 0.999985 0.999985 0.999985 0.999986 
0.999986 0.999986 0.999987 0.999987 0.999987 0.999988 0.999989 0.999991 0.999992 
0.999994 0.999995 0.999997 0.999998 1 1 1 1 1.00001 
0.999997 0.999981 0.999981 0.999981 0.999981 0.999981 0.999981 0.999981 0.999981 
0.999982 0.999982 0.999982 0.999982 0.999982 0.999983 0.999983 0.999983 0.999983 
0.999984 0.999984 0.999984 0.999985 0.999985 0.999985 0.999986 0.999986 0.999986 
0.999988 0.999988 0.99999 0.999991 0.999993 0.999994 0.999996 0.999997 0.999999 
0.999999 1 1 1.00001 0.999996 0.99998 0.99998 0.99998 0.99998 
0.99998 0.99998 0.99998 0.99998 0.999981 0.999981 0.999981 0.999981 0.999981 
0.999982 0.999982 0.999982 0.999982 0.999983 0.999983 0.999983 0.999984 0.999984 
0.999984 0.999985 0.999985 0.999986 0.999987 0.999987 0.999989 0.99999 0.999992 
0.999993 0.999995 0.999996 0.999998 0.999999 1 0.999999 1 0.999995 
0.999979 0.999979 0.999979 0.999979 0.999979 0.999979 0.999979 0.999979 0.999979 
0.99998 0.99998 0.99998 0.99998 0.999981 0.999981 0.999981 0.999981 0.999982 
0.999982 0.999982 0.999983 0.999983 0.999983 0.999984 0.999984 0.999985 0.999986 
0.999986 0.999988 0.999989 0.999991 0.999992 0.999994 0.999996 0.999997 0.999998 
1 0.999998 1 0.999995 0.999977 0.999978 0.999978 0.999978 0.999978 
0.999978 0.999978 0.999978 0.999978 0.999979 0.999979 0.999979 0.999979 0.999979 
0.99998 0.99998 0.99998 0.999981 0.999981 0.999981 0.999982 0.999982 0.999982 
0.999983 0.999983 0.999984 0.999985 0.999985 0.999987 0.999988 0.99999 0.999992 
0.999993 0.999995 0.999997 0.999997 1 0.999998 1 0.999994 0.999976 
0.999977 0.999976 0.999977 0.999977 0.999977 0.999977 0.999977 0.999977 0.999977 
0.999978 0.999978 0.999978 0.999978 0.999979 0.999979 0.999979 0.99998 0.99998 
0.99998 0.999981 0.999981 0.999981 0.999982 0.999982 0.999983 0.999983 0.999984 
0.999986 0.999987 0.999989 0.999991 0.999993 0.999994 0.999996 0.999997 0.999999 
0.999997 1 0.999993 0.999975 0.999976 0.999975 0.999976 0.999976 0.999976 
0.999976 0.999976 0.999976 0.999976 0.999977 0.999977 0.999977 0.999977 0.999978 
0.999978 0.999978 0.999979 0.999979 0.999979 0.99998 0.99998 0.99998 0.999981 
0.999981 0.999982 0.999982 0.999983 0.999984 0.999986 0.999988 0.99999 0.999992 
0.999993 0.999995 0.999996 0.999998 0.999996 1 0.999992 0.999974 0.999974 
0.999974 0.999974 0.999974 0.999975 0.999975 0.999975 0.999975 0.999975 0.999975 
0.999976 0.999976 0.999976 0.999976 0.999977 0.999977 0.999977 0.999978 0.999978 
0.999979 0.999979 0.999979 0.99998 0.99998 0.999981 0.999981 0.999983 0.999983 
0.999986 0.999987 0.999989 0.999991 0.999992 0.999994 0.999995 0.999998 0.999996 
1 0.999992 0.999973 0.999973 0.999973 0.999973 0.999973 0.999973 0.999973 
0.999974 0.999974 0.999974 0.999974 0.999974 0.999975 0.999975 0.999975 0.999976 
0.999976 0.999976 0.999977 0.999977 0.999977 0.999978 0.999978 0.999979 0.999979 
0.99998 0.99998 0.999982 0.999982 0.999985 0.999986 0.999988 0.99999 0.999992 
0.999994 0.999994 0.999997 0.999995 1 0.999991 0.999972 0.999972 0.999972 
0.999972 0.999972 0.999972 0.999972 0.999973 0.999973 0.999973 0.999973 0.999973 
0.999974 0.999974 0.999974 0.999975 0.999975 0.999975 0.999976 0.999976 0.999976 
0.999977 0.999977 0.999978 0.999978 0.999979 0.999979 0.999981 0.999981 0.999984 
0.999985 0.999987 0.999989 0.999991 0.999993 0.999994 0.999996 0.999994 1 
0.99999 0.99997 0.999971 0.999971 0.999971 0.999971 0.999971 0.999971 0.999971 
0.999971 0.999972 0.999972 0.999972 0.999972 0.999973 0.999973 0.999973 0.999974 
0.999974 0.999974 0.999975 0.999975 0.999976 0.999976 0.999977 0.999977 0.999978 
0.999978 0.99998 0.99998 0.999983 0.999984 0.999986 0.999988 0.99999 0.999992 
0.999993 0.999996 0.999993 1 0.999989 0.999969 0.99997 0.999969 0.99997 
0.99997 0.99997 0.99997 0.99997 0.99997 0.99997 0.999971 0.999971 0.999971 
0.999972 0.999972 0.999972 0.999973 0.999973 0.999973 0.999974 0.999974 0.999975 
0.999975 0.999976 0.999976 0.999977 0.999977 0.999979 0.999979 0.999982 0.999983 
0.999985 0.999987 0.999989 0.999991 0.999992 0.999995 0.999993 0.999999 0.999988 
0.999968 0.999968 0.999968 0.999968 0.999968 0.999969 0.999969 0.999969 0.999969 
0.999969 0.999969 0.99997 0.99997 0.99997 0.999971 0.999971 0.999971 0.999972 
0.999972 0.999973 0.999973 0.999974 0.999974 0.999975 0.999975 0.999976 0.999976 
0.999977 0.999978 0.999981 0.999982 0.999984 0.999986 0.999988 0.99999 0.999991 
0.999994 0.999992 0.999998 0.999988 0.999967 0.999967 0.999967 0.999967 0.999967 
0.999967 0.999967 0.999968 0.999968 0.999968 0.999968 0.999969 0.999969 0.999969 
0.999969 0.99997 0.99997 0.999971 0.999971 0.999972 0.999972 0.999972 0.999973 
0.999973 0.999974 0.999975 0.999975 0.999976 0.999977 0.999979 0.999981 0.999983 
0.999985 0.999987 0.99999 0.99999 0.999993 0.999991 0.999998 0.999987 0.999965 
0.999966 0.999965 0.999966 0.999966 0.999966 0.999966 0.999966 0.999966 0.999967 
0.999967 0.999967 0.999968 0.999968 0.999968 0.999969 0.999969 0.999969 0.99997 
0.99997 0.999971 0.999971 0.999972 0.999972 0.999973 0.999973 0.999974 0.999975 
0.999976 0.999978 0.99998 0.999982 0.999985 0.999986 0.999989 0.99999 0.999993 
0.99999 0.999997 0.999986 0.999964 0.999964 0.999964 0.999964 0.999964 0.999965 
0.999965 0.999965 0.999965 0.999965 0.999966 0.999966 0.999966 0.999967 0.999967 
0.999967 0.999968 0.999968 0.999969 0.999969 0.99997 0.99997 0.999971 0.999971 
0.999972 0.999972 0.999973 0.999974 0.999975 0.999977 0.999979 0.999981 0.999984 
0.999986 0.999988 0.999989 0.999992 0.99999 0.999996 0.999985 0.999963 0.999963 
0.999963 0.999963 0.999963 0.999963 0.999963 0.999964 0.999964 0.999964 0.999964 
0.999965 0.999965 0.999965 0.999966 0.999966 0.999967 0.999967 0.999967 0.999968 
0.999968 0.999969 0.999969 0.99997 0.999971 0.999971 0.999972 0.999973 0.999974 
0.999976 0.999978 0.99998 0.999983 0.999985 0.999987 0.999988 0.999991 0.999989 
0.999996 0.999984 0.999961 0.999962 0.999961 0.999962 0.999962 0.999962 0.999962 
0.999962 0.999963 0.999963 0.999963 0.999963 0.999964 0.999964 0.999964 0.999965 
0.999965 0.999966 0.999966 0.999967 0.999967 0.999968 0.999968 0.999969 0.999969 
0.99997 0.999971 0.999972 0.999973 0.999974 0.999977 0.999979 0.999982 0.999984 
0.999986 0.999987 0.99999 0.999988 0.999995 0.999983 0.99996 0.99996 0.99996 
0.99996 0.99996 0.999961 0.999961 0.999961 0.999961 0.999961 0.999962 0.999962 
0.999962 0.999963 0.999963 0.999964 0.999964 0.999964 0.999965 0.999965 0.999966 
0.999967 0.999967 0.999968 0.999968 0.999969 0.99997 0.99997 0.999972 0.999973 
0.999976 0.999978 0.999981 0.999983 0.999985 0.999986 0.99999 0.999987 0.999994 
0.999983 0.999959 0.999959 0.999959 0.999959 0.999959 0.999959 0.999959 0.99996 
0.99996 0.99996 0.99996 0.999961 0.999961 0.999961 0.999962 0.999962 0.999963 
0.999963 0.999964 0.999964 0.999965 0.999965 0.999966 0.999966 0.999967 0.999968 
0.999969 0.999969 0.999971 0.999972 0.999975 0.999977 0.99998 0.999982 0.999985 
0.999985 0.999989 0.999986 0.999994 0.999982 0.999957 0.999958 0.999957 0.999958 
0.999958 0.999958 0.999958 0.999958 0.999958 0.999959 0.999959 0.999959 0.99996 
0.99996 0.999961 0.999961 0.999961 0.999962 0.999962 0.999963 0.999964 0.999964 
0.999965 0.999965 0.999966 0.999966 0.999968 0.999968 0.99997 0.99997 0.999974 
0.999976 0.999979 0.999981 0.999984 0.999985 0.999988 0.999986 0.999993 0.999981 
0.999956 0.999956 0.999956 0.999956 0.999956 0.999956 0.999957 0.999957 0.999957 
0.999957 0.999958 0.999958 0.999958 0.999959 0.999959 0.99996 0.99996 0.999961 
0.999961 0.999962 0.999962 0.999963 0.999963 0.999964 0.999965 0.999965 0.999966 
0.999967 0.999969 0.999969 0.999973 0.999974 0.999978 0.99998 0.999983 0.999984 
0.999987 0.999985 0.999992 0.99998 0.999954 0.999955 0.999955 0.999955 0.999955 
0.999955 0.999955 0.999955 0.999956 0.999956 0.999956 0.999957 0.999957 0.999957 
0.999958 0.999958 0.999959 0.999959 0.99996 0.99996 0.999961 0.999962 0.999962 
0.999963 0.999964 0.999964 0.999965 0.999965 0.999968 0.999968 0.999972 0.999973 
0.999977 0.999979 0.999982 0.999983 0.999986 0.999984 0.999992 0.999979 0.999953 
0.999953 0.999953 0.999953 0.999953 0.999954 0.999954 0.999954 0.999954 0.999955 
0.999955 0.999955 0.999956 0.999956 0.999956 0.999957 0.999957 0.999958 0.999959 
0.999959 0.99996 0.99996 0.999961 0.999961 0.999962 0.999963 0.999964 0.999964 
0.999966 0.999967 0.999971 0.999972 0.999976 0.999978 0.999981 0.999982 0.999986 
0.999983 0.999991 0.999978 0.999951 0.999952 0.999952 0.999952 0.999952 0.999952 
0.999952 0.999953 0.999953 0.999953 0.999953 0.999954 0.999954 0.999955 0.999955 
0.999956 0.999956 0.999957 0.999957 0.999958 0.999958 0.999959 0.99996 0.99996 
0.999961 0.999962 0.999963 0.999963 0.999965 0.999965 0.99997 0.999971 0.999975 
0.999977 0.99998 0.999981 0.999985 0.999982 0.99999 0.999977 0.99995 0.99995 
0.99995 0.99995 0.99995 0.999951 0.999951 0.999951 0.999951 0.999952 0.999952 
0.999952 0.999953 0.999953 0.999954 0.999954 0.999955 0.999955 0.999956 0.999956 
0.999957 0.999958 0.999958 0.999959 0.99996 0.99996 0.999961 0.999962 0.999964 
0.999964 0.999968 0.99997 0.999974 0.999976 0.999979 0.99998 0.999984 0.999981 
0.99999 0.999976 0.999948 0.999949 0.999949 0.999949 0.999949 0.999949 0.999949 
0.99995 0.99995 0.99995 0.999951 0.999951 0.999951 0.999952 0.999952 0.999953 
0.999953 0.999954 0.999954 0.999955 0.999956 0.999956 0.999957 0.999958 0.999958 
0.999959 0.99996 0.999961 0.999962 0.999963 0.999967 0.999969 0.999972 0.999975 
0.999978 0.999979 0.999983 0.999981 0.999989 0.999976 0.999947 0.999947 0.999947 
0.999947 0.999947 0.999948 0.999948 0.999948 0.999948 0.999949 0.999949 0.999949 
0.99995 0.99995 0.999951 0.999951 0.999952 0.999952 0.999953 0.999954 0.999954 
0.999955 0.999956 0.999956 0.999957 0.999958 0.999959 0.999959 0.999961 0.999962 
0.999966 0.999968 0.999971 0.999974 0.999977 0.999978 0.999982 0.99998 0.999988 
0.999975 0.999945 0.999946 0.999946 0.999946 0.999946 0.999946 0.999946 0.999947 
0.999947 0.999947 0.999948 0.999948 0.999948 0.999949 0.999949 0.99995 0.99995 
0.999951 0.999952 0.999952 0.999953 0.999954 0.999954 0.999955 0.999956 0.999957 
0.999958 0.999958 0.99996 0.999961 0.999964 0.999967 0.99997 0.999973 0.999976 
0.999978 0.999981 0.999979 0.999988 0.999974 0.999944 0.999944 0.999944 0.999944 
0.999944 0.999945 0.999945 0.999945 0.999945 0.999946 0.999946 0.999946 0.999947 
0.999947 0.999948 0.999948 0.999949 0.99995 0.99995 0.999951 0.999951 0.999952 
0.999953 0.999954 0.999954 0.999955 0.999956 0.999957 0.999958 0.99996 0.999962 
0.999966 0.999969 0.999972 0.999975 0.999977 0.999981 0.999978 0.999987 0.999973 
0.999942 0.999943 0.999942 0.999943 0.999943 0.999943 0.999943 0.999944 0.999944 
0.999944 0.999945 0.999945 0.999945 0.999946 0.999946 0.999947 0.999947 0.999948 
0.999949 0.999949 0.99995 0.999951 0.999952 0.999952 0.999953 0.999954 0.999955 
0.999956 0.999957 0.999959 0.999961 0.999965 0.999968 0.999971 0.999974 0.999976 
0.99998 0.999977 0.999986 0.999972 0.999941 0.999941 0.999941 0.999941 0.999941 
0.999942 0.999942 0.999942 0.999942 0.999943 0.999943 0.999943 0.999944 0.999944 
0.999945 0.999945 0.999946 0.999947 0.999947 0.999948 0.999949 0.999949 0.99995 
0.999951 0.999952 0.999953 0.999953 0.999955 0.999955 0.999958 0.999959 0.999964 
0.999966 0.99997 0.999973 0.999975 0.999979 0.999976 0.999985 0.999971 0.999939 
0.99994 0.999939 0.99994 0.99994 0.99994 0.99994 0.99994 0.999941 0.999941 
0.999941 0.999942 0.999942 0.999943 0.999943 0.999944 0.999944 0.999945 0.999946 
0.999946 0.999947 0.999948 0.999949 0.99995 0.99995 0.999951 0.999952 0.999954 
0.999954 0.999957 0.999958 0.999963 0.999965 0.999969 0.999972 0.999974 0.999978 
0.999975 0.999985 0.99997 0.999937 0.999938 0.999938 0.999938 0.999938 0.999938 
0.999938 0.999939 0.999939 0.999939 0.99994 0.99994 0.999941 0.999941 0.999942 
0.999942 0.999943 0.999944 0.999944 0.999945 0.999946 0.999947 0.999947 0.999948 
0.999949 0.99995 0.999951 0.999952 0.999953 0.999956 0.999956 0.999961 0.999964 
0.999968 0.999971 0.999973 0.999977 0.999974 0.999984 0.999969 0.999936 0.999936 
0.999936 0.999936 0.999936 0.999937 0.999937 0.999937 0.999937 0.999938 0.999938 
0.999939 0.999939 0.99994 0.99994 0.999941 0.999941 0.999942 0.999943 0.999943 
0.999944 0.999945 0.999946 0.999947 0.999948 0.999949 0.999949 0.999951 0.999951 
0.999954 0.999955 0.99996 0.999963 0.999967 0.99997 0.999972 0.999976 0.999974 
0.999983 0.999968 0.999934 0.999935 0.999934 0.999935 0.999935 0.999935 0.999935 
0.999936 0.999936 0.999936 0.999937 0.999937 0.999937 0.999938 0.999939 0.999939 
0.99994 0.99994 0.999941 0.999942 0.999943 0.999944 0.999944 0.999945 0.999946 
0.999947 0.999948 0.99995 0.99995 0.999953 0.999953 0.999959 0.999961 0.999966 
0.999969 0.999971 0.999975 0.999973 0.999982 0.999967 0.999933 0.999933 0.999933 
0.999933 0.999933 0.999933 0.999934 0.999934 0.999934 0.999935 0.999935 0.999935 
0.999936 0.999936 0.999937 0.999938 0.999938 0.999939 0.99994 0.99994 0.999941 
0.999942 0.999943 0.999944 0.999945 0.999946 0.999946 0.999948 0.999949 0.999951 
0.999952 0.999958 0.99996 0.999964 0.999968 0.99997 0.999974 0.999972 0.999982 
0.999966 0.999931 0.999931 0.999931 0.999932 0.999932 0.999932 0.999932 0.999932 
0.999933 0.999933 0.999933 0.999934 0.999934 0.999935 0.999935 0.999936 0.999937 
0.999937 0.999938 0.999939 0.99994 0.999941 0.999941 0.999942 0.999943 0.999944 
0.999945 0.999947 0.999947 0.99995 0.99995 0.999957 0.999959 0.999963 0.999967 
0.999969 0.999974 0.999971 0.999981 0.999965 0.999929 0.99993 0.999929 0.99993 
0.99993 0.99993 0.99993 0.999931 0.999931 0.999931 0.999932 0.999932 0.999933 
0.999933 0.999934 0.999934 0.999935 0.999936 0.999936 0.999937 0.999938 0.999939 
0.99994 0.999941 0.999942 0.999943 0.999944 0.999945 0.999946 0.999949 0.999949 
0.999955 0.999958 0.999962 0.999966 0.999968 0.999973 0.99997 0.99998 0.999964 
0.999928 0.999928 0.999928 0.999928 0.999928 0.999929 0.999929 0.999929 0.999929 
0.99993 0.99993 0.99993 0.999931 0.999931 0.999932 0.999933 0.999933 0.999934 
0.999935 0.999936 0.999936 0.999937 0.999938 0.999939 0.99994 0.999941 0.999942 
0.999944 0.999944 0.999947 0.999947 0.999954 0.999956 0.999961 0.999965 0.999967 
0.999972 0.999969 0.999979 0.999963 0.999926 0.999926 0.999926 0.999927 0.999926 
0.999927 0.999927 0.999927 0.999928 0.999928 0.999928 0.999929 0.999929 0.99993 
0.99993 0.999931 0.999932 0.999932 0.999933 0.999934 0.999935 0.999936 0.999937 
0.999938 0.999939 0.99994 0.999941 0.999942 0.999943 0.999945 0.999946 0.999952 
0.999955 0.999959 0.999964 0.999966 0.999971 0.999968 0.999978 0.999962 0.999924 
0.999925 0.999924 0.999925 0.999925 0.999925 0.999925 0.999926 0.999926 0.999926 
0.999927 0.999927 0.999928 0.999928 0.999929 0.999929 0.99993 0.999931 0.999931 
0.999932 0.999933 0.999934 0.999935 0.999936 0.999937 0.999938 0.999939 0.999941 
0.999942 0.999944 0.999945 0.999951 0.999954 0.999958 0.999963 0.999965 0.99997 
0.999967 0.999978 0.999961 0.999922 0.999923 0.999923 0.999923 0.999923 0.999923 
0.999924 0.999924 0.999924 0.999924 0.999925 0.999925 0.999926 0.999926 0.999927 
0.999928 0.999928 0.999929 0.99993 0.999931 0.999932 0.999932 0.999933 0.999934 
0.999936 0.999937 0.999938 0.999939 0.99994 0.999942 0.999943 0.999949 0.999953 
0.999957 0.999962 0.999963 0.999969 0.999966 0.999977 0.99996 0.999921 0.999921 
0.999921 0.999921 0.999921 0.999922 0.999922 0.999922 0.999922 0.999923 0.999923 
0.999924 0.999924 0.999925 0.999925 0.999926 0.999927 0.999927 0.999928 0.999929 
0.99993 0.999931 0.999932 0.999933 0.999934 0.999935 0.999936 0.999937 0.999939 
0.99994 0.999943 0.999947 0.999952 0.999955 0.99996 0.999962 0.999968 0.999965 
0.999976 0.999958 0.999919 0.99992 0.999919 0.99992 0.99992 0.99992 0.99992 
0.99992 0.999921 0.999921 0.999921 0.999922 0.999922 0.999923 0.999923 0.999924 
0.999925 0.999925 0.999926 0.999927 0.999928 0.999929 0.99993 0.999931 0.999932 
0.999933 0.999935 0.999936 0.999937 0.999939 0.999942 0.999945 0.999951 0.999954 
0.999959 0.999961 0.999967 0.999964 0.999975 0.999957 0.999917 0.999918 0.999918 
0.999918 0.999918 0.999918 0.999918 0.999919 0.999919 0.999919 0.99992 0.99992 
0.999921 0.999921 0.999922 0.999922 0.999923 0.999924 0.999925 0.999925 0.999926 
0.999927 0.999928 0.999929 0.999931 0.999932 0.999933 0.999934 0.999936 0.999937 
0.999941 0.999943 0.99995 0.999952 0.999958 0.99996 0.999966 0.999963 0.999974 
0.999956 0.999916 0.999916 0.999916 0.999916 0.999916 0.999917 0.999917 0.999917 
0.999917 0.999918 0.999918 0.999918 0.999919 0.999919 0.99992 0.99992 0.999921 
0.999922 0.999923 0.999924 0.999925 0.999926 0.999927 0.999928 0.999929 0.99993 
0.999932 0.999933 0.999935 0.999935 0.999939 0.999941 0.999948 0.999951 0.999957 
0.999959 0.999965 0.999962 0.999973 0.999955 0.999914 0.999915 0.999914 0.999915 
0.999914 0.999915 0.999915 0.999915 0.999915 0.999916 0.999916 0.999917 0.999917 
0.999918 0.999918 0.999919 0.999919 0.99992 0.999921 0.999922 0.999923 0.999924 
0.999925 0.999926 0.999927 0.999928 0.99993 0.999931 0.999933 0.999934 0.999938 
0.999939 0.999947 0.999949 0.999956 0.999958 0.999964 0.999961 0.999973 0.999954 
0.999912 0.999913 0.999912 0.999913 0.999913 0.999913 0.999913 0.999913 0.999914 
0.999914 0.999914 0.999915 0.999915 0.999916 0.999916 0.999917 0.999918 0.999918 
0.999919 0.99992 0.999921 0.999922 0.999923 0.999924 0.999926 0.999927 0.999928 
0.999929 0.999932 0.999932 0.999936 0.999937 0.999946 0.999948 0.999955 0.999956 
0.999963 0.99996 0.999972 0.999953 0.99991 0.999911 0.999911 0.999911 0.999911 
0.999911 0.999911 0.999912 0.999912 0.999912 0.999913 0.999913 0.999913 0.999914 
0.999914 0.999915 0.999916 0.999916 0.999917 0.999918 0.999919 0.99992 0.999921 
0.999922 0.999924 0.999925 0.999927 0.999928 0.99993 0.99993 0.999935 0.999935 
0.999944 0.999947 0.999954 0.999955 0.999962 0.999958 0.999971 0.999952 0.999909 
0.999909 0.999909 0.999909 0.999909 0.99991 0.99991 0.99991 0.99991 0.99991 
0.999911 0.999911 0.999911 0.999912 0.999913 0.999913 0.999914 0.999915 0.999915 
0.999916 0.999917 0.999918 0.999919 0.999921 0.999922 0.999923 0.999925 0.999926 
0.999928 0.999929 0.999933 0.999934 0.999943 0.999945 0.999952 0.999954 0.999961 
0.999957 0.99997 0.999951 0.999907 0.999908 0.999907 0.999908 0.999907 0.999908 
0.999908 0.999908 0.999908 0.999909 0.999909 0.999909 0.99991 0.99991 0.999911 
0.999911 0.999912 0.999913 0.999914 0.999914 0.999915 0.999916 0.999918 0.999919 
0.99992 0.999921 0.999923 0.999924 0.999927 0.999927 0.999931 0.999932 0.999942 
0.999944 0.999951 0.999953 0.99996 0.999956 0.999969 0.999949 0.999905 0.999906 
0.999905 0.999906 0.999906 0.999906 0.999906 0.999906 0.999906 0.999907 0.999907 
0.999907 0.999908 0.999908 0.999909 0.999909 0.99991 0.999911 0.999912 0.999913 
0.999914 0.999915 0.999916 0.999917 0.999918 0.999919 0.999921 0.999922 0.999925 
0.999925 0.99993 0.99993 0.99994 0.999942 0.99995 0.999952 0.999959 0.999955 
0.999968 0.999948 0.999903 0.999904 0.999904 0.999904 0.999904 0.999904 0.999904 
0.999905 0.999905 0.999905 0.999905 0.999906 0.999906 0.999906 0.999907 0.999907 
0.999908 0.999909 0.99991 0.999911 0.999912 0.999913 0.999914 0.999915 0.999916 
0.999918 0.999919 0.99992 0.999923 0.999923 0.999928 0.999928 0.999939 0.999941 
0.999948 0.99995 0.999958 0.999954 0.999967 0.999947 0.999902 0.999902 0.999902 
0.999902 0.999902 0.999902 0.999902 0.999903 0.999903 0.999903 0.999903 0.999904 
0.999904 0.999904 0.999905 0.999906 0.999906 0.999907 0.999908 0.999909 0.99991 
0.999911 0.999912 0.999913 0.999914 0.999916 0.999917 0.999919 0.999921 0.999922 
0.999926 0.999926 0.999937 0.999939 0.999947 0.999949 0.999956 0.999953 0.999966 
0.999946 0.9999 0.999901 0.9999 0.999901 0.9999 0.999901 0.999901 0.999901 
0.999901 0.999901 0.999902 0.999902 0.999902 0.999903 0.999903 0.999904 0.999904 
0.999905 0.999906 0.999907 0.999908 0.999909 0.99991 0.999911 0.999912 0.999914 
0.999916 0.999917 0.999919 0.99992 0.999924 0.999924 0.999935 0.999938 0.999946 
0.999948 0.999955 0.999952 0.999965 0.999944 0.999898 0.999899 0.999898 0.999899 
0.999899 0.999899 0.999899 0.999899 0.999899 0.999899 0.9999 0.9999 0.9999 
0.999901 0.999901 0.999902 0.999902 0.999903 0.999904 0.999905 0.999905 0.999907 
0.999908 0.999909 0.99991 0.999912 0.999914 0.999915 0.999917 0.999918 0.999922 
0.999922 0.999934 0.999936 0.999944 0.999947 0.999954 0.999951 0.999964 0.999943 
0.999897 0.999897 0.999897 0.999897 0.999897 0.999897 0.999897 0.999897 0.999897 
0.999898 0.999898 0.999898 0.999898 0.999899 0.999899 0.9999 0.9999 0.999901 
0.999902 0.999902 0.999903 0.999904 0.999906 0.999907 0.999908 0.99991 0.999911 
0.999913 0.999915 0.999916 0.99992 0.99992 0.999932 0.999935 0.999942 0.999945 
0.999953 0.999949 0.999963 0.999942 0.999895 0.999896 0.999895 0.999896 0.999895 
0.999896 0.999895 0.999896 0.999896 0.999896 0.999896 0.999896 0.999896 0.999897 
0.999897 0.999898 0.999898 0.999899 0.9999 0.9999 0.999901 0.999902 0.999904 
0.999905 0.999906 0.999908 0.999909 0.999911 0.999913 0.999914 0.999918 0.999919 
0.999929 0.999933 0.999941 0.999944 0.999952 0.999948 0.999962 0.999941 0.999893 
0.999894 0.999893 0.999894 0.999894 0.999894 0.999894 0.999894 0.999894 0.999894 
0.999894 0.999894 0.999894 0.999895 0.999895 0.999896 0.999896 0.999897 0.999897 
0.999898 0.999899 0.9999 0.999901 0.999903 0.999904 0.999906 0.999907 0.999909 
0.999911 0.999913 0.999916 0.999917 0.999927 0.999932 0.999939 0.999943 0.99995 
0.999947 0.999961 0.999939 0.999891 0.999892 0.999892 0.999892 0.999892 0.999892 
0.999892 0.999892 0.999892 0.999892 0.999892 0.999892 0.999893 0.999893 0.999893 
0.999894 0.999894 0.999895 0.999895 0.999896 0.999897 0.999898 0.999899 0.9999 
0.999902 0.999903 0.999905 0.999907 0.999909 0.999911 0.999913 0.999916 0.999924 
0.999931 0.999937 0.999942 0.999949 0.999946 0.99996 0.999938 0.99989 0.999891 
0.99989 0.99989 0.99989 0.99989 0.99989 0.99989 0.99989 0.99989 0.99989 
0.99989 0.999891 0.999891 0.999891 0.999891 0.999892 0.999892 0.999893 0.999894 
0.999895 0.999896 0.999897 0.999898 0.9999 0.999901 0.999903 0.999905 0.999907 
0.999909 0.999911 0.999915 0.999921 0.999929 0.999935 0.99994 0.999948 0.999945 
0.999959 0.999937 0.999888 0.999889 0.999888 0.999889 0.999888 0.999889 0.999888 
0.999888 0.999888 0.999888 0.999888 0.999889 0.999889 0.999889 0.999889 0.999889 
0.99989 0.99989 0.999891 0.999892 0.999893 0.999893 0.999895 0.999896 0.999897 
0.999899 0.999901 0.999903 0.999904 0.999907 0.999909 0.999914 0.999919 0.999928 
0.999934 0.999939 0.999946 0.999943 0.999958 0.999936 0.999887 0.999887 0.999887 
0.999887 0.999887 0.999887 0.999887 0.999887 0.999887 0.999887 0.999887 0.999887 
0.999887 0.999887 0.999887 0.999887 0.999888 0.999888 0.999889 0.999889 0.99989 
0.999891 0.999892 0.999894 0.999895 0.999897 0.999898 0.9999 0.999902 0.999905 
0.999907 0.999912 0.999916 0.999927 0.999932 0.999938 0.999945 0.999942 0.999958 
0.999934 0.999885 0.999886 0.999885 0.999885 0.999885 0.999885 0.999885 0.999885 
0.999885 0.999885 0.999885 0.999885 0.999885 0.999885 0.999885 0.999885 0.999886 
0.999886 0.999887 0.999887 0.999888 0.999889 0.99989 0.999891 0.999893 0.999894 
0.999896 0.999898 0.9999 0.999903 0.999904 0.99991 0.999913 0.999925 0.99993 
0.999936 0.999944 0.999941 0.999957 0.999933 0.999883 0.999884 0.999883 0.999884 
0.999883 0.999884 0.999883 0.999883 0.999883 0.999883 0.999883 0.999883 0.999883 
0.999883 0.999883 0.999883 0.999883 0.999884 0.999884 0.999885 0.999886 0.999887 
0.999888 0.999889 0.99989 0.999892 0.999894 0.999896 0.999897 0.999901 0.999902 
0.999908 0.999911 0.999923 0.999928 0.999935 0.999942 0.99994 0.999956 0.999932 
0.999882 0.999882 0.999882 0.999882 0.999882 0.999882 0.999882 0.999882 0.999881 
0.999881 0.999881 0.999881 0.999881 0.999881 0.999881 0.999881 0.999881 0.999881 
0.999882 0.999882 0.999883 0.999884 0.999885 0.999886 0.999888 0.999889 0.999891 
0.999893 0.999895 0.999898 0.9999 0.999906 0.999908 0.999922 0.999926 0.999933 
0.999941 0.999939 0.999955 0.999931 0.99988 0.999881 0.99988 0.999881 0.99988 
0.99988 0.99988 0.99988 0.99988 0.999879 0.999879 0.999879 0.999879 0.999879 
0.999879 0.999879 0.999879 0.999879 0.99988 0.99988 0.999881 0.999882 0.999883 
0.999884 0.999885 0.999887 0.999889 0.999891 0.999893 0.999896 0.999897 0.999904 
0.999906 0.99992 0.999924 0.999932 0.99994 0.999937 0.999954 0.99993 0.999879 
0.999879 0.999879 0.999879 0.999879 0.999879 0.999878 0.999878 0.999878 0.999878 
0.999877 0.999877 0.999877 0.999877 0.999877 0.999877 0.999877 0.999877 0.999877 
0.999878 0.999878 0.999879 0.99988 0.999881 0.999883 0.999884 0.999886 0.999888 
0.99989 0.999894 0.999895 0.999901 0.999903 0.999918 0.999922 0.999931 0.999939 
0.999936 0.999953 0.999929 0.999877 0.999878 0.999877 0.999877 0.999877 0.999877 
0.999877 0.999876 0.999876 0.999876 0.999875 0.999875 0.999875 0.999875 0.999875 
0.999875 0.999875 0.999875 0.999875 0.999875 0.999876 0.999877 0.999878 0.999879 
0.99988 0.999882 0.999883 0.999886 0.999888 0.999891 0.999892 0.999899 0.9999 
0.999917 0.999921 0.999929 0.999937 0.999935 0.999952 0.999928 0.999875 0.999876 
0.999876 0.999876 0.999875 0.999875 0.999875 0.999875 0.999874 0.999874 0.999874 
0.999873 0.999873 0.999873 0.999873 0.999872 0.999872 0.999872 0.999873 0.999873 
0.999873 0.999874 0.999875 0.999876 0.999877 0.999879 0.999881 0.999883 0.999885 
0.999888 0.999889 0.999896 0.999897 0.999915 0.999919 0.999927 0.999936 0.999934 
0.999952 0.999927 0.999874 0.999875 0.999874 0.999874 0.999874 0.999874 0.999873 
0.999873 0.999873 0.999872 0.999872 0.999871 0.999871 0.999871 0.99987 0.99987 
0.99987 0.99987 0.99987 0.99987 0.999871 0.999871 0.999872 0.999873 0.999875 
0.999876 0.999878 0.99988 0.999882 0.999886 0.999887 0.999893 0.999894 0.999913 
0.999917 0.999926 0.999935 0.999933 0.999951 0.999926 0.999873 0.999873 0.999873 
0.999873 0.999872 0.999872 0.999872 0.999871 0.999871 0.999871 0.99987 0.99987 
0.999869 0.999869 0.999868 0.999868 0.999868 0.999868 0.999868 0.999868 0.999868 
0.999869 0.99987 0.99987 0.999872 0.999873 0.999875 0.999877 0.999879 0.999883 
0.999884 0.999891 0.999891 0.999911 0.999915 0.999924 0.999934 0.999932 0.999951 
0.999926 0.999871 0.999872 0.999871 0.999871 0.999871 0.999871 0.99987 0.99987 
0.999869 0.999869 0.999868 0.999868 0.999867 0.999867 0.999866 0.999866 0.999866 
0.999865 0.999865 0.999865 0.999866 0.999866 0.999867 0.999868 0.999869 0.99987 
0.999872 0.999874 0.999877 0.99988 0.999882 0.999888 0.999888 0.999908 0.999913 
0.999923 0.999933 0.999931 0.99995 0.999925 0.99987 0.99987 0.99987 0.99987 
0.999869 0.999869 0.999869 0.999868 0.999868 0.999867 0.999866 0.999866 0.999865 
0.999865 0.999864 0.999864 0.999863 0.999863 0.999863 0.999863 0.999863 0.999863 
0.999864 0.999865 0.999866 0.999867 0.999869 0.999871 0.999874 0.999877 0.999879 
0.999885 0.999885 0.999906 0.999911 0.999921 0.999932 0.99993 0.99995 0.999925 
0.999868 0.999869 0.999868 0.999869 0.999868 0.999868 0.999867 0.999867 0.999866 
0.999865 0.999865 0.999864 0.999863 0.999863 0.999862 0.999861 0.999861 0.99986 
0.99986 0.99986 0.99986 0.99986 0.999861 0.999862 0.999863 0.999864 0.999866 
0.999868 0.999871 0.999874 0.999876 0.999882 0.999882 0.999903 0.999909 0.999919 
0.999931 0.99993 0.99995 0.999925 0.999867 0.999868 0.999867 0.999867 0.999866 
0.999866 0.999866 0.999865 0.999864 0.999864 0.999863 0.999862 0.999861 0.999861 
0.99986 0.999859 0.999859 0.999858 0.999858 0.999857 0.999857 0.999857 0.999858 
0.999859 0.99986 0.999861 0.999863 0.999865 0.999868 0.99987 0.999873 0.999878 
0.99988 0.9999 0.999908 0.999917 0.99993 0.999929 0.99995 0.999925 0.999866 
0.999866 0.999866 0.999866 0.999865 0.999865 0.999864 0.999864 0.999863 0.999862 
0.999861 0.99986 0.99986 0.999859 0.999858 0.999857 0.999856 0.999856 0.999855 
0.999855 0.999855 0.999855 0.999855 0.999855 0.999857 0.999858 0.99986 0.999862 
0.999865 0.999867 0.99987 0.999875 0.999877 0.999897 0.999906 0.999915 0.99993 
0.999929 0.99995 0.999925 0.999864 0.999865 0.999864 0.999864 0.999864 0.999863 
0.999863 0.999862 0.999861 0.99986 0.99986 0.999859 0.999858 0.999857 0.999856 
0.999855 0.999854 0.999853 0.999853 0.999852 0.999852 0.999852 0.999852 0.999852 
0.999854 0.999854 0.999857 0.999858 0.999862 0.999864 0.999868 0.999871 0.999875 
0.999893 0.999904 0.999913 0.999929 0.999928 0.999951 0.999926 0.999863 0.999864 
0.999863 0.999863 0.999862 0.999862 0.999861 0.999861 0.99986 0.999859 0.999858 
0.999857 0.999856 0.999855 0.999854 0.999853 0.999852 0.999851 0.99985 0.999849 
0.999849 0.999849 0.999849 0.999849 0.999851 0.999851 0.999854 0.999855 0.999858 
0.99986 0.999865 0.999867 0.999873 0.999889 0.999903 0.999911 0.999929 0.999928 
0.999952 0.999927 0.999862 0.999863 0.999862 0.999862 0.999861 0.999861 0.99986 
0.999859 0.999858 0.999857 0.999856 0.999855 0.999854 0.999853 0.999852 0.99985 
0.999849 0.999848 0.999848 0.999847 0.999846 0.999846 0.999846 0.999846 0.999847 
0.999847 0.99985 0.999851 0.999855 0.999856 0.999862 0.999864 0.999871 0.999884 
0.999901 0.999909 0.999929 0.999928 0.999954 0.999928 0.999861 0.999861 0.999861 
0.999861 0.99986 0.999859 0.999858 0.999858 0.999857 0.999856 0.999855 0.999853 
0.999852 0.999851 0.99985 0.999848 0.999847 0.999846 0.999845 0.999844 0.999843 
0.999842 0.999843 0.999842 0.999844 0.999844 0.999847 0.999847 0.999852 0.999852 
0.999859 0.99986 0.999869 0.999879 0.9999 0.999907 0.999929 0.999929 0.999955 
0.999931 0.99986 0.99986 0.999859 0.999859 0.999859 0.999858 0.999857 0.999856 
0.999855 0.999854 0.999853 0.999852 0.99985 0.999849 0.999848 0.999846 0.999845 
0.999843 0.999842 0.999841 0.99984 0.999839 0.99984 0.999839 0.99984 0.99984 
0.999843 0.999843 0.999848 0.999848 0.999855 0.999855 0.999867 0.999875 0.999898 
0.999905 0.999929 0.99993 0.999958 0.999933 0.999858 0.999859 0.999858 0.999858 
0.999857 0.999857 0.999856 0.999855 0.999854 0.999853 0.999851 0.99985 0.999849 
0.999847 0.999846 0.999844 0.999843 0.999841 0.99984 0.999838 0.999838 0.999836 
0.999836 0.999835 0.999837 0.999836 0.999839 0.999839 0.999844 0.999844 0.999852 
0.999851 0.999864 0.99987 0.999897 0.999903 0.999929 0.999931 0.99996 0.999936 
0.999857 0.999858 0.999857 0.999857 0.999856 0.999856 0.999855 0.999854 0.999852 
0.999851 0.99985 0.999848 0.999847 0.999845 0.999844 0.999842 0.99984 0.999838 
0.999837 0.999835 0.999835 0.999833 0.999833 0.999832 0.999833 0.999832 0.999835 
0.999835 0.99984 0.99984 0.999848 0.999847 0.999861 0.999865 0.999895 0.999901 
0.99993 0.999933 0.999964 0.999941 0.999856 0.999857 0.999856 0.999856 0.999855 
0.999854 0.999853 0.999852 0.999851 0.99985 0.999848 0.999847 0.999845 0.999843 
0.999842 0.99984 0.999838 0.999836 0.999835 0.999833 0.999832 0.99983 0.99983 
0.999828 0.999829 0.999828 0.999832 0.99983 0.999837 0.999835 0.999845 0.999842 
0.999857 0.99986 0.999894 0.999899 0.999931 0.999935 0.999968 0.999945 0.999855 
0.999856 0.999855 0.999855 0.999854 0.999853 0.999852 0.999851 0.99985 0.999848 
0.999847 0.999845 0.999843 0.999842 0.99984 0.999838 0.999836 0.999834 0.999832 
0.99983 0.999829 0.999826 0.999826 0.999824 0.999826 0.999824 0.999828 0.999826 
0.999833 0.999831 0.999841 0.999838 0.999854 0.999855 0.999892 0.999898 0.999932 
0.999938 0.999973 0.999951 0.999854 0.999855 0.999854 0.999854 0.999853 0.999852 
0.999851 0.99985 0.999849 0.999847 0.999845 0.999844 0.999842 0.99984 0.999838 
0.999835 0.999834 0.999831 0.999829 0.999827 0.999826 0.999823 0.999823 0.99982 
0.999822 0.99982 0.999823 0.999821 0.999828 0.999826 0.999837 0.999833 0.99985 
0.99985 0.999891 0.999896 0.999934 0.999942 0.999979 0.999958 0.999853 0.999854 
0.999853 0.999853 0.999852 0.999851 0.99985 0.999849 0.999847 0.999846 0.999844 
0.999842 0.99984 0.999838 0.999836 0.999833 0.999831 0.999829 0.999827 0.999824 
0.999823 0.99982 0.999819 0.999817 0.999818 0.999815 0.999819 0.999817 0.999824 
0.999821 0.999833 0.999828 0.999846 0.999844 0.999889 0.999894 0.999936 0.999946 
0.999987 0.999967 0.999852 0.999853 0.999852 0.999852 0.999851 0.99985 0.999849 
0.999848 0.999846 0.999844 0.999843 0.999841 0.999839 0.999836 0.999834 0.999831 
0.999829 0.999826 0.999824 0.999821 0.99982 0.999816 0.999816 0.999813 0.999814 
0.999811 0.999815 0.999812 0.999819 0.999816 0.999828 0.999823 0.999842 0.999839 
0.999887 0.999893 0.999939 0.999952 0.999995 0.999976 0.999852 0.999852 0.999851 
0.999851 0.99985 0.999849 0.999848 0.999847 0.999845 0.999843 0.999841 0.999839 
0.999837 0.999835 0.999832 0.999829 0.999827 0.999824 0.999822 0.999818 0.999817 
0.999813 0.999812 0.999809 0.99981 0.999806 0.99981 0.999807 0.999815 0.99981 
0.999824 0.999817 0.999838 0.999833 0.999885 0.999892 0.999942 0.999958 1 
0.999988 0.999851 0.999851 0.99985 0.99985 0.999849 0.999848 0.999847 0.999845 
0.999844 0.999842 0.99984 0.999838 0.999835 0.999833 0.99983 0.999827 0.999825 
0.999822 0.999819 0.999815 0.999813 0.99981 0.999809 0.999805 0.999806 0.999801 
0.999806 0.999801 0.99981 0.999805 0.999819 0.999812 0.999834 0.999826 0.999883 
0.999891 0.999946 0.999965 1.00002 1 0.99985 0.999851 0.999849 0.999849 
0.999848 0.999847 0.999846 0.999844 0.999843 0.999841 0.999839 0.999836 0.999834 
0.999831 0.999829 0.999825 0.999823 0.999819 0.999817 0.999813 0.99981 0.999806 
0.999805 0.999801 0.999802 0.999797 0.999801 0.999796 0.999805 0.999799 0.999814 
0.999806 0.999829 0.99982 0.999881 0.99989 0.999951 0.999974 1.00003 1.00002 
0.999849 0.99985 0.999849 0.999848 0.999847 0.999846 0.999845 0.999843 0.999842 
0.99984 0.999838 0.999835 0.999833 0.99983 0.999827 0.999824 0.999821 0.999817 
0.999814 0.99981 0.999807 0.999803 0.999802 0.999796 0.999797 0.999792 0.999796 
0.99979 0.9998 0.999793 0.999809 0.9998 0.999824 0.999813 0.999878 0.999889 
0.999956 0.999985 1.00004 1.00003 0.999848 0.999849 0.999848 0.999848 0.999846 
0.999846 0.999844 0.999842 0.999841 0.999839 0.999836 0.999834 0.999831 0.999828 
0.999825 0.999822 0.999819 0.999815 0.999812 0.999807 0.999804 0.999799 0.999798 
0.999792 0.999793 0.999787 0.999791 0.999784 0.999794 0.999786 0.999803 0.999793 
0.999819 0.999806 0.999876 0.999889 0.999963 0.999996 1.00006 1.00005 0.999848 
0.999848 0.999847 0.999847 0.999846 0.999845 0.999843 0.999842 0.99984 0.999838 
0.999835 0.999833 0.99983 0.999827 0.999824 0.99982 0.999817 0.999812 0.999809 
0.999804 0.999801 0.999796 0.999794 0.999788 0.999789 0.999781 0.999786 0.999778 
0.999789 0.999779 0.999798 0.999786 0.999814 0.999799 0.999873 0.999889 0.99997 
1.00001 1.00008 1.00008 0.999847 0.999848 0.999847 0.999846 0.999845 0.999844 
0.999842 0.999841 0.999839 0.999837 0.999834 0.999831 0.999829 0.999825 0.999822 
0.999818 0.999815 0.99981 0.999807 0.999801 0.999798 0.999792 0.99979 0.999784 
0.999784 0.999776 0.999781 0.999772 0.999783 0.999772 0.999792 0.999779 0.999808 
0.999792 0.999869 0.999889 0.999978 1.00003 1.0001 1.0001 0.999846 0.999847 
0.999846 0.999846 0.999844 0.999843 0.999842 0.99984 0.999838 0.999836 0.999833 
0.99983 0.999827 0.999824 0.99982 0.999816 0.999813 0.999808 0.999804 0.999799 
0.999795 0.999789 0.999787 0.999779 0.99978 0.999771 0.999776 0.999765 0.999777 
0.999765 0.999786 0.999772 0.999802 0.999785 0.999865 0.99989 0.999988 1.00004 
1.00013 1.00013 0.999846 0.999846 0.999845 0.999845 0.999844 0.999843 0.999841 
0.999839 0.999837 0.999835 0.999832 0.999829 0.999826 0.999822 0.999819 0.999815 
0.999811 0.999806 0.999802 0.999796 0.999792 0.999785 0.999783 0.999775 0.999775 
0.999765 0.99977 0.999758 0.999771 0.999757 0.99978 0.999764 0.999796 0.999778 
0.999861 0.999891 0.999999 1.00006 1.00016 1.00017 0.999845 0.999846 0.999845 
0.999844 0.999843 0.999842 0.99984 0.999838 0.999836 0.999834 0.999831 0.999828 
0.999825 0.999821 0.999817 0.999813 0.999809 0.999804 0.9998 0.999793 0.99979 
0.999782 0.999779 0.99977 0.999771 0.999759 0.999765 0.999751 0.999765 0.999749 
0.999774 0.999756 0.99979 0.999771 0.999855 0.999893 1.00001 1.00009 1.00019 
1.0002 0.999845 0.999845 0.999844 0.999844 0.999842 0.999841 0.999839 0.999838 
0.999835 0.999833 0.99983 0.999827 0.999824 0.99982 0.999816 0.999811 0.999807 
0.999802 0.999797 0.999791 0.999787 0.999779 0.999776 0.999766 0.999766 0.999754 
0.999759 0.999744 0.999759 0.999741 0.999767 0.999747 0.999784 0.999765 0.999849 
0.999894 1.00003 1.00011 1.00023 1.00025 0.999844 0.999845 0.999844 0.999843 
0.999842 0.999841 0.999839 0.999837 0.999835 0.999832 0.999829 0.999826 0.999823 
0.999819 0.999815 0.99981 0.999806 0.9998 0.999795 0.999788 0.999784 0.999775 
0.999772 0.999762 0.999761 0.999748 0.999754 0.999737 0.999752 0.999731 0.99976 
0.999737 0.999777 0.999758 0.999842 0.999897 1.00004 1.00014 1.00027 1.00029 
0.999844 0.999844 0.999843 0.999843 0.999841 0.99984 0.999838 0.999836 0.999834 
0.999831 0.999828 0.999825 0.999822 0.999817 0.999813 0.999808 0.999804 0.999798 
0.999793 0.999786 0.999781 0.999772 0.999769 0.999757 0.999757 0.999742 0.999748 
0.999729 0.999745 0.999722 0.999753 0.999727 0.999771 0.999749 0.999836 0.9999 
1.00006 1.00018 1.00032 1.00035 0.999844 0.999844 0.999843 0.999842 0.999841 
0.99984 0.999838 0.999836 0.999833 0.999831 0.999828 0.999824 0.999821 0.999816 
0.999812 0.999807 0.999802 0.999796 0.999791 0.999783 0.999778 0.999769 0.999765 
0.999753 0.999752 0.999736 0.999742 0.999721 0.999738 0.999712 0.999746 0.999716 
0.999764 0.99974 0.99983 0.999903 1.00008 1.00022 1.00037 1.00041 0.999843 
0.999844 0.999843 0.999842 0.999841 0.999839 0.999837 0.999835 0.999833 0.99983 
0.999827 0.999823 0.99982 0.999815 0.999811 0.999806 0.999801 0.999794 0.999789 
0.999781 0.999776 0.999765 0.999761 0.999748 0.999747 0.99973 0.999736 0.999713 
0.999731 0.999701 0.999738 0.999703 0.999758 0.999728 0.999826 0.999907 1.00011 
1.00026 1.00043 1.00048 0.999843 0.999843 0.999842 0.999842 0.99984 0.999839 
0.999837 0.999835 0.999832 0.999829 0.999826 0.999822 0.999819 0.999814 0.99981 
0.999804 0.999799 0.999792 0.999787 0.999778 0.999773 0.999762 0.999758 0.999744 
0.999743 0.999724 0.99973 0.999704 0.999724 0.99969 0.99973 0.99969 0.999751 
0.999716 0.999821 0.999912 1.00014 1.0003 1.00049 1.00055 0.999843 0.999843 
0.999842 0.999841 0.99984 0.999838 0.999836 0.999834 0.999832 0.999829 0.999825 
0.999822 0.999818 0.999813 0.999809 0.999803 0.999798 0.999791 0.999785 0.999776 
0.999771 0.999759 0.999755 0.99974 0.999738 0.999718 0.999724 0.999696 0.999716 
0.999678 0.999722 0.999676 0.999743 0.999701 0.999818 0.999918 1.00017 1.00036 
1.00056 1.00064 0.999843 0.999843 0.999842 0.999841 0.99984 0.999838 0.999836 
0.999834 0.999831 0.999828 0.999825 0.999821 0.999817 0.999812 0.999808 0.999802 
0.999796 0.999789 0.999783 0.999774 0.999768 0.999756 0.999751 0.999735 0.999734 
0.999712 0.999718 0.999687 0.999708 0.999666 0.999713 0.99966 0.999736 0.999686 
0.999816 0.999925 1.0002 1.00041 1.00065 1.00073 0.999842 0.999843 0.999842 
0.999841 0.999839 0.999838 0.999836 0.999833 0.999831 0.999828 0.999824 0.99982 
0.999816 0.999812 0.999807 0.999801 0.999795 0.999788 0.999781 0.999772 0.999766 
0.999753 0.999748 0.999731 0.999729 0.999705 0.999711 0.999678 0.9997 0.999653 
0.999704 0.999644 0.999729 0.999668 0.999816 0.999933 1.00024 1.00048 1.00073 
1.00083 0.999842 0.999843 0.999841 0.999841 0.999839 0.999838 0.999835 0.999833 
0.99983 0.999827 0.999824 0.99982 0.999816 0.999811 0.999806 0.9998 0.999794 
0.999786 0.99978 0.99977 0.999763 0.99975 0.999745 0.999727 0.999725 0.999699 
0.999705 0.999669 0.999692 0.99964 0.999694 0.999625 0.999721 0.999649 0.999817 
0.99994 1.00028 1.00055 1.00083 1.00095 0.999842 0.999842 0.999841 0.99984 
0.999839 0.999837 0.999835 0.999833 0.99983 0.999827 0.999823 0.999819 0.999815 
0.99981 0.999805 0.999799 0.999793 0.999785 0.999778 0.999768 0.999761 0.999748 
0.999742 0.999723 0.99972 0.999693 0.999699 0.999659 0.999684 0.999625 0.999684 
0.999606 0.999712 0.999627 0.999817 0.999948 1.00033 1.00064 1.00094 1.00107 
0.999842 0.999842 0.999841 0.99984 0.999839 0.999837 0.999835 0.999832 0.99983 
0.999826 0.999823 0.999819 0.999814 0.999809 0.999804 0.999798 0.999792 0.999784 
0.999777 0.999766 0.999759 0.999745 0.999739 0.999719 0.999716 0.999687 0.999693 
0.99965 0.999675 0.99961 0.999674 0.999584 0.999703 0.999602 0.999816 0.999958 
1.00038 1.00073 1.00107 1.00121 0.999842 0.999842 0.999841 0.99984 0.999839 
0.999837 0.999835 0.999832 0.999829 0.999826 0.999822 0.999818 0.999814 0.999809 
0.999803 0.999797 0.999791 0.999782 0.999775 0.999765 0.999757 0.999743 0.999736 
0.999715 0.999712 0.999681 0.999687 0.99964 0.999666 0.999595 0.999663 0.999561 
0.999694 0.999575 0.999814 0.99997 1.00044 1.00083 1.0012 1.00136 0.999842 
0.999842 0.999841 0.99984 0.999838 0.999837 0.999834 0.999832 0.999829 0.999826 
0.999822 0.999818 0.999813 0.999808 0.999803 0.999796 0.99979 0.999781 0.999774 
0.999763 0.999755 0.99974 0.999733 0.999712 0.999708 0.999676 0.999681 0.999631 
0.999658 0.999579 0.999651 0.999536 0.999683 0.999544 0.99981 0.999986 1.00051 
1.00095 1.00135 1.00153 0.999842 0.999842 0.999841 0.99984 0.999838 0.999837 
0.999834 0.999832 0.999829 0.999826 0.999822 0.999818 0.999813 0.999808 0.999802 
0.999795 0.999789 0.99978 0.999773 0.999761 0.999754 0.999738 0.999731 0.999708 
0.999704 0.99967 0.999675 0.999621 0.999649 0.999563 0.999639 0.999508 0.999672 
0.999508 0.999806 1.00001 1.00059 1.00108 1.00151 1.00171 0.999842 0.999842 
0.999841 0.99984 0.999838 0.999837 0.999834 0.999832 0.999829 0.999825 0.999822 
0.999817 0.999813 0.999807 0.999802 0.999795 0.999788 0.999779 0.999772 0.99976 
0.999752 0.999736 0.999728 0.999705 0.9997 0.999665 0.999669 0.999612 0.99964 
0.999546 0.999627 0.999479 0.99966 0.999468 0.999801 1.00003 1.00068 1.00122 
1.00168 1.00191 0.999842 0.999842 0.999841 0.99984 0.999838 0.999837 0.999834 
0.999832 0.999829 0.999825 0.999821 0.999817 0.999812 0.999807 0.999801 0.999794 
0.999787 0.999778 0.999771 0.999759 0.99975 0.999734 0.999726 0.999702 0.999697 
0.999659 0.999664 0.999603 0.999631 0.999528 0.999614 0.999447 0.999647 0.999421 
0.999795 1.00006 1.00078 1.00138 1.00187 1.00212 0.999842 0.999842 0.999841 
0.99984 0.999838 0.999837 0.999834 0.999831 0.999828 0.999825 0.999821 0.999817 
0.999812 0.999806 0.999801 0.999794 0.999787 0.999778 0.99977 0.999758 0.999749 
0.999732 0.999724 0.999699 0.999693 0.999655 0.999658 0.999593 0.999622 0.999511 
0.9996 0.999413 0.999632 0.999367 0.999789 1.00009 1.00089 1.00155 1.00207 
1.00235 0.999842 0.999843 0.999841 0.99984 0.999838 0.999837 0.999834 0.999831 
0.999828 0.999825 0.999821 0.999817 0.999812 0.999806 0.9998 0.999793 0.999786 
0.999777 0.999769 0.999757 0.999748 0.99973 0.999722 0.999696 0.99969 0.99965 
0.999653 0.999585 0.999613 0.999493 0.999586 0.999377 0.999615 0.999304 0.999781 
1.00014 1.00101 1.00174 1.00229 1.00259 0.999843 0.999843 0.999841 0.99984 
0.999838 0.999837 0.999834 0.999831 0.999828 0.999825 0.999821 0.999816 0.999812 
0.999806 0.9998 0.999793 0.999786 0.999776 0.999768 0.999756 0.999746 0.999729 
0.99972 0.999694 0.999687 0.999646 0.999648 0.999576 0.999605 0.999475 0.999571 
0.999338 0.999597 0.99923 0.999773 1.00019 1.00115 1.00195 1.00253 1.00285 
0.999843 0.999843 0.999841 0.99984 0.999838 0.999837 0.999834 0.999831 0.999828 
0.999825 0.999821 0.999816 0.999811 0.999806 0.9998 0.999792 0.999785 0.999776 
0.999767 0.999755 0.999745 0.999728 0.999718 0.999692 0.999684 0.999641 0.999643 
0.999568 0.999597 0.999458 0.999556 0.999297 0.999576 0.999144 0.999763 1.00026 
1.00131 1.00218 1.00278 1.00313 0.999843 0.999843 0.999842 0.99984 0.999839 
0.999837 0.999834 0.999831 0.999828 0.999825 0.999821 0.999816 0.999811 0.999806 
0.999799 0.999792 0.999785 0.999775 0.999767 0.999754 0.999744 0.999726 0.999717 
0.99969 0.999682 0.999638 0.999639 0.999561 0.999589 0.99944 0.999541 0.999254 
0.999553 0.999042 0.999753 1.00035 1.00149 1.00243 1.00305 1.00342 0.999843 
0.999843 0.999842 0.999841 0.999839 0.999837 0.999834 0.999832 0.999828 0.999825 
0.999821 0.999816 0.999811 0.999805 0.999799 0.999792 0.999785 0.999775 0.999766 
0.999753 0.999744 0.999725 0.999715 0.999688 0.999679 0.999635 0.999635 0.999554 
0.999581 0.999424 0.999527 0.99921 0.999526 0.998923 0.999741 1.00046 1.00168 
1.00271 1.00333 1.00373 0.999844 0.999844 0.999842 0.999841 0.999839 0.999837 
0.999834 0.999832 0.999828 0.999825 0.999821 0.999816 0.999811 0.999805 0.999799 
0.999792 0.999784 0.999775 0.999766 0.999753 0.999743 0.999725 0.999714 0.999686 
0.999677 0.999632 0.999631 0.999548 0.999574 0.999408 0.999512 0.999163 0.999498 
0.998785 0.999727 1.0006 1.0019 1.003 1.00364 1.00405 0.999845 0.999844 
0.999843 0.999841 0.999839 0.999837 0.999835 0.999832 0.999829 0.999825 0.999821 
0.999817 0.999812 0.999806 0.999799 0.999792 0.999785 0.999775 0.999766 0.999753 
0.999743 0.999724 0.999713 0.999685 0.999676 0.99963 0.999628 0.999543 0.999568 
0.999395 0.999498 0.999117 0.999466 0.998626 0.999712 1.00077 1.00214 1.00332 
1.00395 1.00438 0.999845 0.999845 0.999843 0.999842 0.99984 0.999838 0.999835 
0.999833 0.999829 0.999826 0.999822 0.999817 0.999812 0.999806 0.9998 0.999792 
0.999785 0.999775 0.999766 0.999753 0.999743 0.999724 0.999713 0.999685 0.999675 
0.999628 0.999626 0.999539 0.999562 0.999382 0.999485 0.999071 0.999433 0.998443 
0.999695 1.00099 1.00241 1.00366 1.00428 1.00472 0.99984 0.99984 0.999838 
0.999837 0.999835 0.999833 0.99983 0.999827 0.999824 0.99982 0.999816 0.999812 
0.999807 0.999801 0.999794 0.999787 0.999779 0.999769 0.99976 0.999747 0.999737 
0.999718 0.999707 0.999679 0.999668 0.999621 0.999618 0.99953 0.999552 0.999367 
0.999468 0.999022 0.999395 0.998235 0.999674 1.00127 1.00271 1.00402 1.00462 
1.00507 0.999844 0.999843 0.999841 0.99984 0.999838 0.999836 0.999833 0.999831 
0.999827 0.999824 0.99982 0.999815 0.99981 0.999804 0.999798 0.99979 0.999782 
0.999773 0.999763 0.99975 0.99974 0.999721 0.999709 0.999681 0.99967 0.999623 
0.999618 0.999531 0.99955 0.999361 0.999459 0.998983 0.999359 0.997996 0.999649 
1.00161 1.00305 1.00441 1.00497 1.00544 0.999914 0.999912 0.999911 0.999909 
0.999907 0.999905 0.999903 0.9999 0.999897 0.999893 0.999889 0.999884 0.999879 
0.999873 0.999867 0.999859 0.999852 0.999842 0.999833 0.999819 0.999809 0.99979 
0.999778 0.99975 0.999738 0.999691 0.999685 0.999598 0.999614 0.999424 0.999516 
0.999015 0.999383 0.99776 0.999613 1.00204 1.00342 1.00482 1.00534 1.00581 
0.999791 0.999791 0.999789 0.999787 0.999785 0.999783 0.99978 0.999778 0.999774 
0.999771 0.999767 0.999762 0.999757 0.999751 0.999744 0.999737 0.999729 0.99972 
0.99971 0.999697 0.999686 0.999668 0.999656 0.999628 0.999617 0.99957 0.999564 
0.999478 0.999494 0.999304 0.999397 0.998886 0.999274 0.997455 0.999556 1.00254 
1.00382 1.00524 1.00571 1.00617 0.99902 0.999016 0.999013 0.999011 0.999009 
0.999006 0.999003 0.999 0.998997 0.998993 0.998989 0.998984 0.998979 0.998973 
0.998967 0.998959 0.998952 0.998942 0.998933 0.99892 0.99891 0.998892 0.99888 
0.998853 0.998842 0.998797 0.998792 0.998707 0.998726 0.998539 0.998641 0.998137 
0.998585 0.996653 0.99953 1.00314 1.00421 1.0056 1.00601 1.00646 1.00071 
1.00071 1.00071 1.0007 1.0007 1.0007 1.0007 1.0007 1.00069 1.00069 
1.00069 1.00068 1.00068 1.00067 1.00066 1.00066 1.00065 1.00064 1.00063 
1.00062 1.0006 1.00059 1.00057 1.00054 1.00053 1.00048 1.00047 1.00039 
1.00039 1.00021 1.00027 0.999754 1.00002 0.997256 0.999565 1.00371 1.00451 
1.00588 1.00623 1.00668 1.00277 1.00277 1.00277 1.00277 1.00277 1.00277 
1.00277 1.00277 1.00277 1.00276 1.00276 1.00276 1.00275 1.00274 1.00274 
1.00273 1.00272 1.00271 1.0027 1.00269 1.00267 1.00265 1.00264 1.00261 
1.00259 1.00254 1.00252 1.00244 1.00242 1.00224 1.00225 1.00173 1.00177 
0.998317 0.999602 1.00406 1.00471 1.00607 1.00638 1.00683 1.00492 1.00492 
1.00492 1.00493 1.00493 1.00493 1.00493 1.00493 1.00493 1.00492 1.00492 
1.00491 1.00491 1.0049 1.0049 1.00489 1.00488 1.00487 1.00486 1.00484 
1.00483 1.00481 1.00479 1.00476 1.00474 1.00469 1.00466 1.00457 1.00454 
1.00436 1.00432 1.0038 1.00362 0.999632 0.999671 1.00441 1.00492 1.00626 
1.00654 1.00698 1.00701 1.00701 1.00701 1.00702 1.00702 1.00702 1.00702 
1.00702 1.00702 1.00702 1.00702 1.00701 1.00701 1.007 1.00699 1.00699 
1.00698 1.00696 1.00695 1.00694 1.00692 1.0069 1.00688 1.00685 1.00682 
1.00677 1.00674 1.00665 1.0066 1.00642 1.00633 1.00583 1.00546 1.00118 
0.999776 1.00478 1.00514 1.00645 1.0067 1.00713 1.00907 1.00907 1.00908 
1.00909 1.00909 1.00909 1.0091 1.0091 1.0091 1.00909 1.00909 1.00909 
1.00908 1.00908 1.00907 1.00906 1.00905 1.00904 1.00903 1.00901 1.00899 
1.00897 1.00895 1.00892 1.00888 1.00883 1.00879 1.0087 1.00864 1.00847 
1.00833 1.00785 1.00733 1.00304 0.999919 1.00515 1.00537 1.00664 1.00685 
1.00728 1.01115 1.01115 1.01116 1.01117 1.01117 1.01118 1.01118 1.01118 
1.01118 1.01118 1.01118 1.01117 1.01117 1.01116 1.01116 1.01115 1.01114 
1.01112 1.01111 1.01109 1.01108 1.01105 1.01103 1.011 1.01096 1.01091 
1.01086 1.01077 1.01069 1.01052 1.01036 1.00991 1.00928 1.00535 1.00012 
1.00552 1.00559 1.00682 1.00701 1.00743 1.01326 1.01327 1.01328 1.01329 
1.0133 1.01331 1.01331 1.01331 1.01331 1.01331 1.01331 1.01331 1.0133 
1.01329 1.01329 1.01328 1.01327 1.01326 1.01324 1.01323 1.01321 1.01318 
1.01316 1.01312 1.01309 1.01304 1.01298 1.0129 1.01281 1.01265 1.01246 
1.01207 1.0114 1.00834 1.00048 1.00591 1.00584 1.00702 1.00717 1.00758 
1.01515 1.01517 1.01518 1.01519 1.0152 1.01521 1.01521 1.01521 1.01521 
1.01522 1.01521 1.01521 1.01521 1.0152 1.01519 1.01519 1.01518 1.01517 
1.01515 1.01514 1.01512 1.0151 1.01507 1.01504 1.01501 1.01496 1.0149 
1.01483 1.01473 1.0146 1.0144 1.01411 1.01344 1.01167 1.0012 1.00632 
1.00616 1.00726 1.00738 1.00778 1.01651 1.01652 1.01654 1.01655 1.01656 
1.01656 1.01657 1.01657 1.01658 1.01658 1.01658 1.01657 1.01657 1.01657 
1.01656 1.01655 1.01654 1.01653 1.01652 1.01651 1.01649 1.01647 1.01645 
1.01642 1.01639 1.01635 1.0163 1.01623 1.01614 1.01603 1.01583 1.01561 
1.01493 1.01445 1.00288 1.00692 1.00667 1.00763 1.00771 1.00809 1.01601 
1.01603 1.01604 1.01605 1.01605 1.01606 1.01607 1.01607 1.01607 1.01607 
1.01607 1.01607 1.01606 1.01606 1.01605 1.01604 1.01603 1.01602 1.01601 
1.01599 1.01597 1.01595 1.01593 1.01589 1.01586 1.01581 1.01575 1.01568 
1.01557 1.01544 1.01521 1.01494 1.01411 1.01341 1.00466 1.00761 1.00724 
1.00804 1.00806 1.00842 1.01603 1.01604 1.01605 1.01606 1.01607 1.01607 
1.01608 1.01608 1.01608 1.01608 1.01608 1.01608 1.01607 1.01607 1.01606 
1.01605 1.01604 1.01603 1.01601 1.016 1.01598 1.01595 1.01592 1.01589 
1.01585 1.0158 1.01573 1.01565 1.01554 1.01539 1.01513 1.01483 1.01391 
1.01315 1.00624 1.00828 1.00781 1.00844 1.00842 1.00875 1.01604 1.01605 
1.01606 1.01607 1.01607 1.01608 1.01608 1.01609 1.01609 1.01609 1.01609 
1.01608 1.01608 1.01607 1.01606 1.01606 1.01604 1.01603 1.01602 1.016 
1.01598 1.01595 1.01593 1.01589 1.01585 1.0158 1.01573 1.01564 1.01552 
1.01537 1.01509 1.01478 1.01384 1.01313 1.00755 1.00889 1.00835 1.00885 
1.00878 1.00908 1.01604 1.01604 1.01605 1.01606 1.01607 1.01607 1.01607 
1.01608 1.01608 1.01608 1.01608 1.01607 1.01607 1.01606 1.01605 1.01604 
1.01603 1.01602 1.016 1.01599 1.01596 1.01594 1.01591 1.01587 1.01583 
1.01577 1.0157 1.01561 1.01548 1.01532 1.01503 1.01471 1.01377 1.01311 
1.00862 1.00944 1.00887 1.00924 1.00913 1.00941 1.01604 1.01604 1.01605 
1.01606 1.01606 1.01607 1.01607 1.01607 1.01607 1.01607 1.01607 1.01607 
1.01606 1.01605 1.01605 1.01604 1.01602 1.01601 1.01599 1.01598 1.01595 
1.01593 1.01589 1.01586 1.01581 1.01575 1.01568 1.01558 1.01545 1.01528 
1.01498 1.01465 1.01374 1.0131 1.00949 1.00994 1.00935 1.00961 1.00948 
1.00973 1.01603 1.01604 1.01604 1.01605 1.01606 1.01606 1.01606 1.01607 
1.01607 1.01606 1.01606 1.01606 1.01605 1.01605 1.01604 1.01603 1.01602 
1.016 1.01598 1.01596 1.01594 1.01591 1.01588 1.01584 1.01579 1.01573 
1.01565 1.01555 1.01541 1.01524 1.01493 1.0146 1.01373 1.01312 1.0102 
1.01039 1.0098 1.00997 1.00981 1.01004 1.01603 1.01604 1.01604 1.01605 
1.01605 1.01606 1.01606 1.01606 1.01606 1.01606 1.01606 1.01605 1.01605 
1.01604 1.01603 1.01602 1.01601 1.01599 1.01597 1.01595 1.01593 1.0159 
1.01587 1.01582 1.01577 1.01571 1.01563 1.01553 1.01538 1.0152 1.01489 
1.01456 1.01374 1.01316 1.01079 1.0108 1.01021 1.01031 1.01014 1.01035 
1.01603 1.01603 1.01604 1.01604 1.01605 1.01605 1.01605 1.01605 1.01605 
1.01605 1.01605 1.01604 1.01604 1.01603 1.01602 1.01601 1.016 1.01598 
1.01596 1.01594 1.01592 1.01589 1.01585 1.01581 1.01575 1.01569 1.0156 
1.0155 1.01535 1.01517 1.01486 1.01453 1.01376 1.01321 1.01127 1.01116 
1.0106 1.01064 1.01045 1.01064 1.01603 1.01603 1.01603 1.01604 1.01604 
1.01604 1.01605 1.01605 1.01605 1.01604 1.01604 1.01604 1.01603 1.01602 
1.01601 1.016 1.01599 1.01597 1.01595 1.01593 1.0159 1.01587 1.01584 
1.01579 1.01574 1.01567 1.01558 1.01547 1.01532 1.01514 1.01483 1.01451 
1.0138 1.01328 1.01168 1.01149 1.01095 1.01095 1.01075 1.01092 1.01602 
1.01603 1.01603 1.01603 1.01603 1.01604 1.01604 1.01604 1.01604 1.01604 
1.01603 1.01603 1.01602 1.01601 1.016 1.01599 1.01598 1.01596 1.01594 
1.01592 1.01589 1.01586 1.01582 1.01577 1.01572 1.01565 1.01556 1.01545 
1.0153 1.01511 1.01481 1.01449 1.01384 1.01335 1.01203 1.01178 1.01128 
1.01124 1.01104 1.01119 1.01602 1.01602 1.01602 1.01603 1.01603 1.01603 
1.01603 1.01603 1.01603 1.01603 1.01603 1.01602 1.01601 1.016 1.01599 
1.01598 1.01597 1.01595 1.01593 1.01591 1.01588 1.01585 1.01581 1.01576 
1.0157 1.01563 1.01554 1.01543 1.01527 1.01509 1.0148 1.01448 1.01388 
1.01342 1.01233 1.01205 1.01158 1.01152 1.01131 1.01145 1.01601 1.01602 
1.01602 1.01602 1.01602 1.01603 1.01603 1.01603 1.01602 1.01602 1.01602 
1.01601 1.01601 1.016 1.01599 1.01597 1.01596 1.01594 1.01592 1.01589 
1.01587 1.01583 1.01579 1.01574 1.01568 1.01561 1.01552 1.0154 1.01525 
1.01507 1.01478 1.01448 1.01393 1.0135 1.01258 1.01229 1.01186 1.01178 
1.01157 1.0117 1.01601 1.01601 1.01601 1.01602 1.01602 1.01602 1.01602 
1.01602 1.01602 1.01601 1.01601 1.016 1.016 1.01599 1.01598 1.01596 
1.01595 1.01593 1.01591 1.01588 1.01585 1.01582 1.01578 1.01573 1.01566 
1.01559 1.0155 1.01538 1.01523 1.01505 1.01477 1.01448 1.01399 1.01358 
1.01281 1.01251 1.01212 1.01202 1.01182 1.01193 1.016 1.01601 1.01601 
1.01601 1.01601 1.01601 1.01601 1.01601 1.01601 1.01601 1.016 1.016 
1.01599 1.01598 1.01597 1.01595 1.01594 1.01592 1.0159 1.01587 1.01584 
1.0158 1.01576 1.01571 1.01565 1.01557 1.01548 1.01536 1.01521 1.01503 
1.01477 1.01449 1.01404 1.01366 1.013 1.01272 1.01235 1.01225 1.01205 
1.01215 1.016 1.016 1.016 1.01601 1.01601 1.01601 1.01601 1.01601 
1.016 1.016 1.01599 1.01599 1.01598 1.01597 1.01596 1.01594 1.01593 
1.01591 1.01588 1.01586 1.01583 1.01579 1.01575 1.01569 1.01563 1.01556 
1.01546 1.01535 1.0152 1.01502 1.01477 1.0145 1.01409 1.01374 1.01318 
1.0129 1.01257 1.01246 1.01227 1.01237 1.01599 1.016 1.016 1.016 
1.016 1.016 1.016 1.016 1.016 1.01599 1.01599 1.01598 1.01597 
1.01596 1.01595 1.01593 1.01592 1.0159 1.01587 1.01585 1.01581 1.01578 
1.01573 1.01568 1.01561 1.01554 1.01544 1.01533 1.01518 1.01501 1.01477 
1.01452 1.01415 1.01382 1.01334 1.01307 1.01277 1.01266 1.01248 1.01256 
1.01599 1.01599 1.01599 1.01599 1.01599 1.01599 1.01599 1.01599 1.01599 
1.01598 1.01598 1.01597 1.01596 1.01595 1.01594 1.01592 1.01591 1.01588 
1.01586 1.01583 1.0158 1.01576 1.01572 1.01566 1.0156 1.01552 1.01543 
1.01532 1.01517 1.015 1.01478 1.01454 1.0142 1.0139 1.01348 1.01323 
1.01295 1.01284 1.01268 1.01275 1.01598 1.01599 1.01599 1.01599 1.01599 
1.01599 1.01598 1.01598 1.01598 1.01597 1.01597 1.01596 1.01595 1.01594 
1.01593 1.01591 1.01589 1.01587 1.01585 1.01582 1.01579 1.01575 1.0157 
1.01565 1.01558 1.01551 1.01541 1.0153 1.01516 1.015 1.01479 1.01456 
1.01425 1.01398 1.01361 1.01338 1.01312 1.01302 1.01286 1.01293 1.01598 
1.01598 1.01598 1.01598 1.01598 1.01598 1.01598 1.01598 1.01597 1.01597 
1.01596 1.01595 1.01594 1.01593 1.01592 1.0159 1.01588 1.01586 1.01584 
1.01581 1.01577 1.01574 1.01569 1.01563 1.01557 1.01549 1.0154 1.01529 
1.01515 1.015 1.0148 1.01458 1.0143 1.01405 1.01373 1.01351 1.01328 
1.01318 1.01304 1.0131 1.01597 1.01597 1.01597 1.01597 1.01597 1.01597 
1.01597 1.01597 1.01596 1.01596 1.01595 1.01594 1.01593 1.01592 1.01591 
1.01589 1.01587 1.01585 1.01583 1.0158 1.01576 1.01572 1.01568 1.01562 
1.01556 1.01548 1.01539 1.01528 1.01515 1.015 1.01481 1.01461 1.01435 
1.01412 1.01384 1.01364 1.01343 1.01333 1.0132 1.01325 1.01597 1.01597 
1.01597 1.01597 1.01597 1.01596 1.01596 1.01596 1.01595 1.01595 1.01594 
1.01593 1.01592 1.01591 1.0159 1.01588 1.01586 1.01584 1.01581 1.01578 
1.01575 1.01571 1.01566 1.01561 1.01554 1.01547 1.01538 1.01527 1.01515 
1.015 1.01482 1.01463 1.0144 1.01419 1.01394 1.01376 1.01356 1.01348 
1.01335 1.0134 1.01596 1.01596 1.01596 1.01596 1.01596 1.01596 1.01595 
1.01595 1.01595 1.01594 1.01593 1.01592 1.01591 1.0159 1.01589 1.01587 
1.01585 1.01583 1.0158 1.01577 1.01574 1.0157 1.01565 1.01559 1.01553 
1.01546 1.01537 1.01527 1.01514 1.01501 1.01484 1.01466 1.01445 1.01426 
1.01403 1.01386 1.01369 1.01361 1.01349 1.01354 1.01595 1.01595 1.01595 
1.01595 1.01595 1.01595 1.01595 1.01594 1.01594 1.01593 1.01592 1.01592 
1.0159 1.01589 1.01588 1.01586 1.01584 1.01582 1.01579 1.01576 1.01572 
1.01568 1.01564 1.01558 1.01552 1.01545 1.01536 1.01526 1.01514 1.01501 
1.01486 1.01469 1.0145 1.01432 1.01412 1.01397 1.01381 1.01373 1.01363 
1.01367 1.01595 1.01595 1.01595 1.01595 1.01594 1.01594 1.01594 1.01593 
1.01593 1.01592 1.01592 1.01591 1.01589 1.01588 1.01587 1.01585 1.01583 
1.01581 1.01578 1.01575 1.01571 1.01567 1.01563 1.01557 1.01551 1.01544 
1.01535 1.01526 1.01514 1.01502 1.01487 1.01472 1.01455 1.01438 1.0142 
1.01406 1.01392 1.01385 1.01375 1.01379 1.01594 1.01594 1.01594 1.01594 
1.01594 1.01593 1.01593 1.01593 1.01592 1.01591 1.01591 1.0159 1.01588 
1.01587 1.01586 1.01584 1.01582 1.01579 1.01577 1.01574 1.0157 1.01566 
1.01561 1.01556 1.0155 1.01543 1.01535 1.01525 1.01515 1.01503 1.01489 
1.01475 1.01459 1.01444 1.01428 1.01415 1.01402 1.01396 1.01387 1.0139 
1.01593 1.01593 1.01593 1.01593 1.01593 1.01593 1.01592 1.01592 1.01591 
1.0159 1.0159 1.01589 1.01587 1.01586 1.01585 1.01583 1.01581 1.01578 
1.01576 1.01573 1.01569 1.01565 1.0156 1.01555 1.01549 1.01542 1.01534 
1.01525 1.01515 1.01504 1.01491 1.01478 1.01463 1.0145 1.01435 1.01423 
1.01412 1.01406 1.01398 1.01401 1.01592 1.01593 1.01592 1.01592 1.01592 
1.01592 1.01591 1.01591 1.0159 1.0159 1.01589 1.01588 1.01586 1.01585 
1.01584 1.01582 1.0158 1.01577 1.01575 1.01571 1.01568 1.01564 1.01559 
1.01554 1.01548 1.01542 1.01534 1.01525 1.01516 1.01505 1.01493 1.01481 
1.01468 1.01455 1.01442 1.01431 1.01421 1.01415 1.01408 1.0141 1.01592 
1.01592 1.01592 1.01592 1.01591 1.01591 1.01591 1.0159 1.01589 1.01589 
1.01588 1.01587 1.01586 1.01584 1.01582 1.01581 1.01579 1.01576 1.01573 
1.0157 1.01567 1.01563 1.01558 1.01553 1.01548 1.01541 1.01534 1.01525 
1.01516 1.01506 1.01495 1.01484 1.01472 1.0146 1.01448 1.01439 1.01429 
1.01424 1.01417 1.0142 1.01591 1.01591 1.01591 1.01591 1.0159 1.0159 
1.0159 1.01589 1.01588 1.01588 1.01587 1.01586 1.01585 1.01583 1.01581 
1.0158 1.01577 1.01575 1.01572 1.01569 1.01566 1.01562 1.01558 1.01553 
1.01547 1.01541 1.01534 1.01526 1.01517 1.01508 1.01497 1.01487 1.01476 
1.01465 1.01454 1.01446 1.01437 1.01433 1.01426 1.01428 1.0159 1.0159 
1.0159 1.0159 1.0159 1.01589 1.01589 1.01588 1.01588 1.01587 1.01586 
1.01585 1.01584 1.01582 1.0158 1.01579 1.01576 1.01574 1.01571 1.01568 
1.01565 1.01561 1.01557 1.01552 1.01546 1.0154 1.01533 1.01526 1.01518 
1.01509 1.01499 1.0149 1.01479 1.0147 1.0146 1.01452 1.01444 1.0144 
1.01435 1.01437 1.01589 1.01589 1.01589 1.01589 1.01589 1.01588 1.01588 
1.01587 1.01587 1.01586 1.01585 1.01584 1.01583 1.01581 1.01579 1.01578 
1.01575 1.01573 1.0157 1.01567 1.01564 1.0156 1.01556 1.01551 1.01546 
1.0154 1.01534 1.01526 1.01519 1.0151 1.01502 1.01493 1.01483 1.01474 
1.01466 1.01458 1.01451 1.01448 1.01443 1.01444 1.01588 1.01589 1.01588 
1.01588 1.01588 1.01588 1.01587 1.01586 1.01586 1.01585 1.01584 1.01583 
1.01582 1.0158 1.01578 1.01577 1.01574 1.01572 1.01569 1.01566 1.01563 
1.01559 1.01555 1.01551 1.01546 1.0154 1.01534 1.01527 1.0152 1.01512 
1.01504 1.01495 1.01487 1.01479 1.01471 1.01464 1.01458 1.01455 1.0145 
1.01451 1.01588 1.01588 1.01587 1.01587 1.01587 1.01587 1.01586 1.01586 
1.01585 1.01584 1.01583 1.01582 1.01581 1.01579 1.01577 1.01576 1.01574 
1.01571 1.01569 1.01566 1.01562 1.01559 1.01555 1.0155 1.01545 1.0154 
1.01534 1.01527 1.01521 1.01513 1.01506 1.01498 1.0149 1.01483 1.01476 
1.0147 1.01464 1.01461 1.01457 1.01458 1.01587 1.01587 1.01587 1.01586 
1.01586 1.01586 1.01585 1.01585 1.01584 1.01583 1.01582 1.01581 1.0158 
1.01578 1.01577 1.01575 1.01573 1.0157 1.01568 1.01565 1.01562 1.01558 
1.01554 1.0155 1.01545 1.0154 1.01534 1.01528 1.01522 1.01515 1.01508 
1.01501 1.01494 1.01487 1.0148 1.01475 1.0147 1.01467 1.01463 1.01464 
1.01586 1.01586 1.01586 1.01586 1.01585 1.01585 1.01584 1.01584 1.01583 
1.01582 1.01581 1.0158 1.01579 1.01577 1.01576 1.01574 1.01572 1.01569 
1.01567 1.01564 1.01561 1.01557 1.01554 1.01549 1.01545 1.0154 1.01534 
1.01529 1.01523 1.01516 1.0151 1.01503 1.01497 1.01491 1.01485 1.0148 
1.01475 1.01473 1.01469 1.0147 1.01585 1.01585 1.01585 1.01585 1.01584 
1.01584 1.01583 1.01583 1.01582 1.01581 1.0158 1.01579 1.01578 1.01576 
1.01575 1.01573 1.01571 1.01568 1.01566 1.01563 1.0156 1.01557 1.01553 
1.01549 1.01545 1.0154 1.01535 1.0153 1.01524 1.01518 1.01512 1.01506 
1.015 1.01494 1.01489 1.01485 1.0148 1.01478 1.01475 1.01476 1.01584 
1.01584 1.01584 1.01584 1.01583 1.01583 1.01582 1.01582 1.01581 1.0158 
1.01579 1.01578 1.01577 1.01575 1.01574 1.01572 1.0157 1.01568 1.01565 
1.01562 1.01559 1.01556 1.01553 1.01549 1.01545 1.0154 1.01535 1.0153 
1.01525 1.0152 1.01514 1.01508 1.01503 1.01498 1.01493 1.01489 1.01485 
1.01483 1.0148 1.01481 1.01583 1.01583 1.01583 1.01583 1.01583 1.01582 
1.01582 1.01581 1.0158 1.01579 1.01578 1.01577 1.01576 1.01574 1.01573 
1.01571 1.01569 1.01567 1.01564 1.01562 1.01559 1.01556 1.01552 1.01549 
1.01545 1.0154 1.01536 1.01531 1.01526 1.01521 1.01516 1.01511 1.01506 
1.01501 1.01497 1.01493 1.01489 1.01488 1.01485 1.01486 1.01582 1.01583 
1.01582 1.01582 1.01582 1.01581 1.01581 1.0158 1.01579 1.01578 1.01577 
1.01576 1.01575 1.01574 1.01572 1.0157 1.01568 1.01566 1.01564 1.01561 
1.01558 1.01555 1.01552 1.01549 1.01545 1.01541 1.01536 1.01532 1.01527 
1.01523 1.01518 1.01513 1.01509 1.01504 1.015 1.01497 1.01494 1.01492 
1.0149 1.01491 1.01581 1.01582 1.01581 1.01581 1.01581 1.0158 1.0158 
1.01579 1.01578 1.01578 1.01577 1.01575 1.01574 1.01573 1.01571 1.01569 
1.01568 1.01565 1.01563 1.01561 1.01558 1.01555 1.01552 1.01548 1.01545 
1.01541 1.01537 1.01533 1.01529 1.01524 1.0152 1.01515 1.01511 1.01507 
1.01504 1.01501 1.01498 1.01496 1.01494 1.01495 1.01581 1.01581 1.0158 
1.0158 1.0158 1.01579 1.01579 1.01578 1.01578 1.01577 1.01576 1.01575 
1.01573 1.01572 1.0157 1.01569 1.01567 1.01565 1.01563 1.0156 1.01557 
1.01555 1.01552 1.01548 1.01545 1.01541 1.01538 1.01534 1.0153 1.01526 
1.01522 1.01518 1.01514 1.0151 1.01507 1.01504 1.01502 1.015 1.01498 
1.01499 1.0158 1.0158 1.0158 1.01579 1.01579 1.01579 1.01578 1.01577 
1.01577 1.01576 1.01575 1.01574 1.01572 1.01571 1.0157 1.01568 1.01566 
1.01564 1.01562 1.0156 1.01557 1.01554 1.01552 1.01548 1.01545 1.01542 
1.01538 1.01535 1.01531 1.01527 1.01523 1.0152 1.01516 1.01513 1.0151 
1.01508 1.01505 1.01504 1.01502 1.01503 1.01579 1.01579 1.01579 1.01579 
1.01578 1.01578 1.01577 1.01577 1.01576 1.01575 1.01574 1.01573 1.01572 
1.0157 1.01569 1.01567 1.01565 1.01564 1.01561 1.01559 1.01557 1.01554 
1.01551 1.01549 1.01545 1.01542 1.01539 1.01536 1.01532 1.01529 1.01525 
1.01522 1.01519 1.01516 1.01513 1.01511 1.01508 1.01507 1.01506 1.01506 
1.01578 1.01578 1.01578 1.01578 1.01577 1.01577 1.01576 1.01576 1.01575 
1.01574 1.01573 1.01572 1.01571 1.0157 1.01568 1.01567 1.01565 1.01563 
1.01561 1.01559 1.01556 1.01554 1.01551 1.01549 1.01546 1.01543 1.0154 
1.01536 1.01533 1.0153 1.01527 1.01524 1.01521 1.01518 1.01516 1.01514 
1.01512 1.01511 1.01509 1.0151 1.01577 1.01577 1.01577 1.01577 1.01576 
1.01576 1.01575 1.01575 1.01574 1.01573 1.01572 1.01571 1.0157 1.01569 
1.01567 1.01566 1.01564 1.01562 1.01561 1.01558 1.01556 1.01554 1.01551 
1.01549 1.01546 1.01543 1.0154 1.01537 1.01534 1.01531 1.01529 1.01526 
1.01523 1.01521 1.01518 1.01517 1.01515 1.01514 1.01512 1.01513 1.01576 
1.01576 1.01576 1.01576 1.01576 1.01575 1.01575 1.01574 1.01573 1.01572 
1.01572 1.01571 1.01569 1.01568 1.01567 1.01565 1.01564 1.01562 1.0156 
1.01558 1.01556 1.01554 1.01551 1.01549 1.01546 1.01544 1.01541 1.01538 
1.01536 1.01533 1.0153 1.01528 1.01525 1.01523 1.01521 1.01519 1.01518 
1.01517 1.01516 1.01516 1.01575 1.01576 1.01575 1.01575 1.01575 1.01574 
1.01574 1.01573 1.01572 1.01572 1.01571 1.0157 1.01569 1.01568 1.01566 
1.01565 1.01563 1.01562 1.0156 1.01558 1.01556 1.01554 1.01552 1.01549 
1.01547 1.01544 1.01542 1.01539 1.01537 1.01534 1.01532 1.01529 1.01527 
1.01525 1.01523 1.01522 1.0152 1.0152 1.01518 1.01519 1.01575 1.01575 
1.01574 1.01574 1.01574 1.01574 1.01573 1.01572 1.01572 1.01571 1.0157 
1.01569 1.01568 1.01567 1.01566 1.01564 1.01563 1.01561 1.01559 1.01558 
1.01556 1.01554 1.01552 1.01549 1.01547 1.01545 1.01543 1.0154 1.01538 
1.01536 1.01533 1.01531 1.01529 1.01527 1.01525 1.01524 1.01523 1.01522 
1.01521 1.01522 1.01574 1.01574 1.01574 1.01573 1.01573 1.01573 1.01572 
1.01572 1.01571 1.0157 1.01569 1.01568 1.01567 1.01566 1.01565 1.01564 
1.01562 1.01561 1.01559 1.01557 1.01556 1.01554 1.01552 1.0155 1.01548 
1.01546 1.01543 1.01541 1.01539 1.01537 1.01535 1.01533 1.01531 1.01529 
1.01528 1.01526 1.01525 1.01525 1.01524 1.01524 1.01573 1.01573 1.01573 
1.01573 1.01572 1.01572 1.01571 1.01571 1.0157 1.0157 1.01569 1.01568 
1.01567 1.01566 1.01565 1.01563 1.01562 1.0156 1.01559 1.01557 1.01556 
1.01554 1.01552 1.0155 1.01548 1.01546 1.01544 1.01542 1.0154 1.01538 
1.01536 1.01534 1.01533 1.01531 1.0153 1.01529 1.01527 1.01527 1.01526 
1.01526 1.01572 1.01572 1.01572 1.01572 1.01572 1.01571 1.01571 1.0157 
1.0157 1.01569 1.01568 1.01567 1.01566 1.01565 1.01564 1.01563 1.01562 
1.0156 1.01559 1.01557 1.01556 1.01554 1.01552 1.0155 1.01549 1.01547 
1.01545 1.01543 1.01541 1.01539 1.01538 1.01536 1.01534 1.01533 1.01532 
1.01531 1.0153 1.01529 1.01528 1.01529 1.01571 1.01572 1.01571 1.01571 
1.01571 1.0157 1.0157 1.0157 1.01569 1.01568 1.01567 1.01567 1.01566 
1.01565 1.01564 1.01562 1.01561 1.0156 1.01559 1.01557 1.01556 1.01554 
1.01552 1.01551 1.01549 1.01547 1.01546 1.01544 1.01542 1.0154 1.01539 
1.01537 1.01536 1.01535 1.01533 1.01533 1.01532 1.01531 1.01531 1.01531 
1.01571 1.01571 1.01571 1.0157 1.0157 1.0157 1.01569 1.01569 1.01568 
1.01568 1.01567 1.01566 1.01565 1.01564 1.01563 1.01562 1.01561 1.0156 
1.01558 1.01557 1.01556 1.01554 1.01553 1.01551 1.01549 1.01548 1.01546 
1.01545 1.01543 1.01542 1.0154 1.01539 1.01537 1.01536 1.01535 1.01534 
1.01534 1.01533 1.01533 1.01533 1.0157 1.0157 1.0157 1.0157 1.01569 
1.01569 1.01569 1.01568 1.01568 1.01567 1.01566 1.01566 1.01565 1.01564 
1.01563 1.01562 1.01561 1.0156 1.01558 1.01557 1.01556 1.01554 1.01553 
1.01551 1.0155 1.01549 1.01547 1.01546 1.01544 1.01543 1.01541 1.0154 
1.01539 1.01538 1.01537 1.01536 1.01535 1.01535 1.01535 1.01535 1.01569 
1.01569 1.01569 1.01569 1.01569 1.01569 1.01568 1.01568 1.01567 1.01567 
1.01566 1.01565 1.01564 1.01563 1.01563 1.01562 1.01561 1.01559 1.01558 
1.01557 1.01556 1.01555 1.01553 1.01552 1.0155 1.01549 1.01548 1.01546 
1.01545 1.01544 1.01543 1.01541 1.0154 1.01539 1.01539 1.01538 1.01537 
1.01537 1.01536 1.01537 1.01569 1.01569 1.01569 1.01569 1.01568 1.01568 
1.01568 1.01567 1.01567 1.01566 1.01565 1.01565 1.01564 1.01563 1.01562 
1.01561 1.0156 1.01559 1.01558 1.01557 1.01556 1.01555 1.01553 1.01552 
1.01551 1.0155 1.01548 1.01547 1.01546 1.01545 1.01544 1.01543 1.01542 
1.01541 1.0154 1.01539 1.01539 1.01539 1.01538 1.01538 1.01568 1.01568 
1.01568 1.01568 1.01568 1.01567 1.01567 1.01567 1.01566 1.01566 1.01565 
1.01564 1.01564 1.01563 1.01562 1.01561 1.0156 1.01559 1.01558 1.01557 
1.01556 1.01555 1.01554 1.01553 1.01551 1.0155 1.01549 1.01548 1.01547 
1.01546 1.01545 1.01544 1.01543 1.01542 1.01541 1.01541 1.0154 1.0154 
1.0154 1.0154 1.01568 1.01568 1.01567 1.01567 1.01567 1.01567 1.01566 
1.01566 1.01566 1.01565 1.01565 1.01564 1.01563 1.01563 1.01562 1.01561 
1.0156 1.01559 1.01558 1.01557 1.01556 1.01555 1.01554 1.01553 1.01552 
1.01551 1.0155 1.01549 1.01548 1.01547 1.01546 1.01545 1.01544 1.01544 
1.01543 1.01542 1.01542 1.01542 1.01541 1.01541 1.01567 1.01567 1.01567 
1.01567 1.01567 1.01566 1.01566 1.01566 1.01565 1.01565 1.01564 1.01564 
1.01563 1.01562 1.01562 1.01561 1.0156 1.01559 1.01558 1.01557 1.01556 
1.01555 1.01554 1.01553 1.01552 1.01552 1.01551 1.0155 1.01549 1.01548 
1.01547 1.01546 1.01545 1.01545 1.01544 1.01544 1.01543 1.01543 1.01543 
1.01543 1.01567 1.01567 1.01566 1.01566 1.01566 1.01566 1.01566 1.01565 
1.01565 1.01564 1.01564 1.01563 1.01563 1.01562 1.01561 1.01561 1.0156 
1.01559 1.01558 1.01557 1.01557 1.01556 1.01555 1.01554 1.01553 1.01552 
1.01551 1.0155 1.01549 1.01549 1.01548 1.01547 1.01547 1.01546 1.01545 
1.01545 1.01545 1.01544 1.01544 1.01544 1.01566 1.01566 1.01566 1.01566 
1.01566 1.01565 1.01565 1.01565 1.01564 1.01564 1.01564 1.01563 1.01562 
1.01562 1.01561 1.01561 1.0156 1.01559 1.01558 1.01558 1.01557 1.01556 
1.01555 1.01554 1.01553 1.01553 1.01552 1.01551 1.0155 1.0155 1.01549 
1.01548 1.01548 1.01547 1.01547 1.01546 1.01546 1.01546 1.01545 1.01546 
1.01566 1.01566 1.01566 1.01565 1.01565 1.01565 1.01565 1.01564 1.01564 
1.01564 1.01563 1.01563 1.01562 1.01562 1.01561 1.01561 1.0156 1.01559 
1.01558 1.01558 1.01557 1.01556 1.01556 1.01555 1.01554 1.01553 1.01553 
1.01552 1.01551 1.0155 1.0155 1.01549 1.01549 1.01548 1.01548 1.01547 
1.01547 1.01547 1.01547 1.01547 1.01565 1.01565 1.01565 1.01565 1.01565 
1.01565 1.01564 1.01564 1.01564 1.01563 1.01563 1.01563 1.01562 1.01562 
1.01561 1.0156 1.0156 1.01559 1.01559 1.01558 1.01557 1.01557 1.01556 
1.01555 1.01555 1.01554 1.01553 1.01552 1.01552 1.01551 1.01551 1.0155 
1.0155 1.01549 1.01549 1.01549 1.01548 1.01548 1.01548 1.01548 1.01565 
1.01565 1.01565 1.01565 1.01565 1.01564 1.01564 1.01564 1.01564 1.01563 
1.01563 1.01562 1.01562 1.01562 1.01561 1.0156 1.0156 1.01559 1.01559 
1.01558 1.01558 1.01557 1.01556 1.01556 1.01555 1.01554 1.01554 1.01553 
1.01553 1.01552 1.01552 1.01551 1.01551 1.0155 1.0155 1.0155 1.01549 
1.01549 1.01549 1.01549 1.01565 1.01565 1.01565 1.01565 1.01564 1.01564 
1.01564 1.01564 1.01563 1.01563 1.01563 1.01562 1.01562 1.01561 1.01561 
1.01561 1.0156 1.01559 1.01559 1.01558 1.01558 1.01557 1.01557 1.01556 
1.01555 1.01555 1.01554 1.01554 1.01553 1.01553 1.01552 1.01552 1.01552 
1.01551 1.01551 1.01551 1.0155 1.0155 1.0155 1.0155 1.01564 1.01564 
1.01564 1.01564 1.01564 1.01564 1.01564 1.01563 1.01563 1.01563 1.01563 
1.01562 1.01562 1.01561 1.01561 1.01561 1.0156 1.0156 1.01559 1.01559 
1.01558 1.01558 1.01557 1.01557 1.01556 1.01555 1.01555 1.01554 1.01554 
1.01554 1.01553 1.01553 1.01552 1.01552 1.01552 1.01552 1.01551 1.01551 
1.01551 1.01551 1.01564 1.01564 1.01564 1.01564 1.01564 1.01564 1.01564 
1.01563 1.01563 1.01563 1.01562 1.01562 1.01562 1.01561 1.01561 1.01561 
1.0156 1.0156 1.01559 1.01559 1.01558 1.01558 1.01557 1.01557 1.01556 
1.01556 1.01556 1.01555 1.01555 1.01554 1.01554 1.01554 1.01553 1.01553 
1.01553 1.01553 1.01552 1.01552 1.01552 1.01552 1.01564 1.01564 1.01564 
1.01564 1.01564 1.01564 1.01563 1.01563 1.01563 1.01563 1.01562 1.01562 
1.01562 1.01561 1.01561 1.01561 1.0156 1.0156 1.0156 1.01559 1.01559 
1.01558 1.01558 1.01557 1.01557 1.01557 1.01556 1.01556 1.01555 1.01555 
1.01555 1.01554 1.01554 1.01554 1.01554 1.01553 1.01553 1.01553 1.01553 
1.01553 1.01564 1.01564 1.01564 1.01564 1.01564 1.01563 1.01563 1.01563 
1.01563 1.01563 1.01562 1.01562 1.01562 1.01562 1.01561 1.01561 1.01561 
1.0156 1.0156 1.01559 1.01559 1.01559 1.01558 1.01558 1.01557 1.01557 
1.01557 1.01556 1.01556 1.01556 1.01555 1.01555 1.01555 1.01555 1.01554 
1.01554 1.01554 1.01554 1.01554 1.01554 1.01564 1.01564 1.01564 1.01564 
1.01564 1.01563 1.01563 1.01563 1.01563 1.01563 1.01562 1.01562 1.01562 
1.01562 1.01561 1.01561 1.01561 1.0156 1.0156 1.0156 1.01559 1.01559 
1.01559 1.01558 1.01558 1.01558 1.01557 1.01557 1.01557 1.01556 1.01556 
1.01556 1.01556 1.01555 1.01555 1.01555 1.01555 1.01555 1.01555 1.01555 
1.01564 1.01564 1.01564 1.01564 1.01563 1.01563 1.01563 1.01563 1.01563 
1.01563 1.01562 1.01562 1.01562 1.01562 1.01561 1.01561 1.01561 1.01561 
1.0156 1.0156 1.0156 1.01559 1.01559 1.01559 1.01558 1.01558 1.01558 
1.01558 1.01557 1.01557 1.01557 1.01557 1.01556 1.01556 1.01556 1.01556 
1.01556 1.01556 1.01556 1.01556 1.01564 1.01564 1.01564 1.01564 1.01563 
1.01563 1.01563 1.01563 1.01563 1.01563 1.01563 1.01562 1.01562 1.01562 
1.01562 1.01561 1.01561 1.01561 1.01561 1.0156 1.0156 1.0156 1.01559 
1.01559 1.01559 1.01559 1.01558 1.01558 1.01558 1.01558 1.01557 1.01557 
1.01557 1.01557 1.01557 1.01557 1.01556 1.01556 1.01556 1.01556 1.01564 
1.01564 1.01564 1.01564 1.01563 1.01563 1.01563 1.01563 1.01563 1.01563 
1.01563 1.01562 1.01562 1.01562 1.01562 1.01562 1.01561 1.01561 1.01561 
1.01561 1.0156 1.0156 1.0156 1.0156 1.01559 1.01559 1.01559 1.01559 
1.01558 1.01558 1.01558 1.01558 1.01558 1.01558 1.01557 1.01557 1.01557 
1.01557 1.01557 1.01557 1.01564 1.01564 1.01564 1.01564 1.01564 1.01563 
1.01563 1.01563 1.01563 1.01563 1.01563 1.01563 1.01562 1.01562 1.01562 
1.01562 1.01562 1.01561 1.01561 1.01561 1.01561 1.01561 1.0156 1.0156 
1.0156 1.0156 1.01559 1.01559 1.01559 1.01559 1.01559 1.01559 1.01558 
1.01558 1.01558 1.01558 1.01558 1.01558 1.01558 1.01558 1.01564 1.01564 
1.01564 1.01564 1.01564 1.01564 1.01563 1.01563 1.01563 1.01563 1.01563 
1.01563 1.01563 1.01562 1.01562 1.01562 1.01562 1.01562 1.01562 1.01561 
1.01561 1.01561 1.01561 1.01561 1.0156 1.0156 1.0156 1.0156 1.0156 
1.01559 1.01559 1.01559 1.01559 1.01559 1.01559 1.01559 1.01559 1.01559 
1.01559 1.01559 1.01564 1.01564 1.01564 1.01564 1.01564 1.01564 1.01564 
1.01564 1.01563 1.01563 1.01563 1.01563 1.01563 1.01563 1.01563 1.01562 
1.01562 1.01562 1.01562 1.01562 1.01562 1.01561 1.01561 1.01561 1.01561 
1.01561 1.0156 1.0156 1.0156 1.0156 1.0156 1.0156 1.0156 1.0156 
1.01559 1.01559 1.01559 1.01559 1.01559 1.01559 1.01564 1.01564 1.01564 
1.01564 1.01564 1.01564 1.01564 1.01564 1.01564 1.01563 1.01563 1.01563 
1.01563 1.01563 1.01563 1.01563 1.01563 1.01562 1.01562 1.01562 1.01562 
1.01562 1.01562 1.01561 1.01561 1.01561 1.01561 1.01561 1.01561 1.01561 
1.0156 1.0156 1.0156 1.0156 1.0156 1.0156 1.0156 1.0156 1.0156 
1.0156 1.01564 1.01564 1.01564 1.01564 1.01564 1.01564 1.01564 1.01564 
1.01564 1.01564 1.01564 1.01564 1.01563 1.01563 1.01563 1.01563 1.01563 
1.01563 1.01563 1.01562 1.01562 1.01562 1.01562 1.01562 1.01562 1.01562 
1.01562 1.01561 1.01561 1.01561 1.01561 1.01561 1.01561 1.01561 1.01561 
1.01561 1.01561 1.01561 1.01561 1.01561 1.01564 1.01564 1.01564 1.01564 
1.01564 1.01564 1.01564 1.01564 1.01564 1.01564 1.01564 1.01564 1.01564 
1.01564 1.01563 1.01563 1.01563 1.01563 1.01563 1.01563 1.01563 1.01563 
1.01563 1.01562 1.01562 1.01562 1.01562 1.01562 1.01562 1.01562 1.01562 
1.01562 1.01561 1.01561 1.01561 1.01561 1.01561 1.01561 1.01561 1.01561 
1.01565 1.01565 1.01565 1.01565 1.01565 1.01565 1.01564 1.01564 1.01564 
1.01564 1.01564 1.01564 1.01564 1.01564 1.01564 1.01564 1.01564 1.01564 
1.01563 1.01563 1.01563 1.01563 1.01563 1.01563 1.01563 1.01563 1.01563 
1.01562 1.01562 1.01562 1.01562 1.01562 1.01562 1.01562 1.01562 1.01562 
1.01562 1.01562 1.01562 1.01562 1.01565 1.01565 1.01565 1.01565 1.01565 
1.01565 1.01565 1.01565 1.01565 1.01565 1.01565 1.01564 1.01564 1.01564 
1.01564 1.01564 1.01564 1.01564 1.01564 1.01564 1.01564 1.01564 1.01563 
1.01563 1.01563 1.01563 1.01563 1.01563 1.01563 1.01563 1.01563 1.01563 
1.01563 1.01563 1.01563 1.01563 1.01562 1.01562 1.01562 1.01562 1.01565 
1.01565 1.01565 1.01565 1.01565 1.01565 1.01565 1.01565 1.01565 1.01565 
1.01565 1.01565 1.01565 1.01565 1.01565 1.01564 1.01564 1.01564 1.01564 
1.01564 1.01564 1.01564 1.01564 1.01564 1.01564 1.01564 1.01564 1.01564 
1.01563 1.01563 1.01563 1.01563 1.01563 1.01563 1.01563 1.01563 1.01563 
1.01563 1.01563 1.01563 1.01565 1.01566 1.01565 1.01565 1.01565 1.01565 
1.01565 1.01565 1.01565 1.01565 1.01565 1.01565 1.01565 1.01565 1.01565 
1.01565 1.01565 1.01565 1.01565 1.01565 1.01565 1.01564 1.01564 1.01564 
1.01564 1.01564 1.01564 1.01564 1.01564 1.01564 1.01564 1.01564 1.01564 
1.01564 1.01564 1.01564 1.01564 1.01564 1.01564 1.01564 1.01566 1.01566 
1.01566 1.01566 1.01566 1.01566 1.01566 1.01566 1.01566 1.01566 1.01566 
1.01566 1.01566 1.01565 1.01565 1.01565 1.01565 1.01565 1.01565 1.01565 
1.01565 1.01565 1.01565 1.01565 1.01565 1.01565 1.01565 1.01565 1.01565 
1.01565 1.01564 1.01564 1.01564 1.01564 1.01564 1.01564 1.01564 1.01564 
1.01564 1.01564 1.01566 1.01566 1.01566 1.01566 1.01566 1.01566 1.01566 
1.01566 1.01566 1.01566 1.01566 1.01566 1.01566 1.01566 1.01566 1.01566 
1.01566 1.01566 1.01566 1.01566 1.01566 1.01565 1.01565 1.01565 1.01565 
1.01565 1.01565 1.01565 1.01565 1.01565 1.01565 1.01565 1.01565 1.01565 
1.01565 1.01565 1.01565 1.01565 1.01565 1.01565 1.01567 1.01567 1.01567 
1.01567 1.01567 1.01567 1.01567 1.01567 1.01566 1.01566 1.01566 1.01566 
1.01566 1.01566 1.01566 1.01566 1.01566 1.01566 1.01566 1.01566 1.01566 
1.01566 1.01566 1.01566 1.01566 1.01566 1.01566 1.01566 1.01566 1.01566 
1.01566 1.01566 1.01566 1.01565 1.01565 1.01565 1.01565 1.01565 1.01565 
1.01565 1.01567 1.01567 1.01567 1.01567 1.01567 1.01567 1.01567 1.01567 
1.01567 1.01567 1.01567 1.01567 1.01567 1.01567 1.01567 1.01567 1.01567 
1.01567 1.01567 1.01567 1.01567 1.01566 1.01566 1.01566 1.01566 1.01566 
1.01566 1.01566 1.01566 1.01566 1.01566 1.01566 1.01566 1.01566 1.01566 
1.01566 1.01566 1.01566 1.01566 1.01566 1.01567 1.01567 1.01567 1.01567 
1.01567 1.01567 1.01567 1.01567 1.01567 1.01567 1.01567 1.01567 1.01567 
1.01567 1.01567 1.01567 1.01567 1.01567 1.01567 1.01567 1.01567 1.01567 
1.01567 1.01567 1.01567 1.01567 1.01567 1.01567 1.01567 1.01567 1.01567 
1.01567 1.01567 1.01567 1.01567 1.01567 1.01567 1.01567 1.01567 1.01567 
1.01568 1.01568 1.01568 1.01568 1.01568 1.01568 1.01568 1.01568 1.01568 
1.01568 1.01568 1.01568 1.01568 1.01568 1.01568 1.01568 1.01568 1.01568 
1.01568 1.01568 1.01568 1.01568 1.01568 1.01567 1.01567 1.01567 1.01567 
1.01567 1.01567 1.01567 1.01567 1.01567 1.01567 1.01567 1.01567 1.01567 
1.01567 1.01567 1.01567 1.01567 1.01568 1.01568 1.01568 1.01568 1.01568 
1.01568 1.01568 1.01568 1.01568 1.01568 1.01568 1.01568 1.01568 1.01568 
1.01568 1.01568 1.01568 1.01568 1.01568 1.01568 1.01568 1.01568 1.01568 
1.01568 1.01568 1.01568 1.01568 1.01568 1.01568 1.01568 1.01568 1.01568 
1.01568 1.01568 1.01568 1.01568 1.01568 1.01568 1.01568 1.01568 1.01569 
1.01569 1.01569 1.01569 1.01569 1.01569 1.01569 1.01569 1.01569 1.01569 
1.01569 1.01569 1.01569 1.01569 1.01569 1.01569 1.01569 1.01569 1.01569 
1.01569 1.01569 1.01569 1.01569 1.01569 1.01569 1.01569 1.01569 1.01569 
1.01569 1.01568 1.01568 1.01568 1.01568 1.01568 1.01568 1.01568 1.01568 
1.01568 1.01568 1.01568 1.01569 1.0157 1.01569 1.01569 1.01569 1.01569 
1.01569 1.01569 1.01569 1.01569 1.01569 1.01569 1.01569 1.01569 1.01569 
1.01569 1.01569 1.01569 1.01569 1.01569 1.01569 1.01569 1.01569 1.01569 
1.01569 1.01569 1.01569 1.01569 1.01569 1.01569 1.01569 1.01569 1.01569 
1.01569 1.01569 1.01569 1.01569 1.01569 1.01569 1.01569 1.0157 1.0157 
1.0157 1.0157 1.0157 1.0157 1.0157 1.0157 1.0157 1.0157 1.0157 
1.0157 1.0157 1.0157 1.0157 1.0157 1.0157 1.0157 1.0157 1.0157 
1.0157 1.0157 1.0157 1.0157 1.0157 1.0157 1.0157 1.0157 1.0157 
1.0157 1.0157 1.0157 1.0157 1.0157 1.0157 1.0157 1.0157 1.0157 
1.0157 1.0157 1.01571 1.01571 1.01571 1.01571 1.01571 1.01571 1.01571 
1.01571 1.01571 1.01571 1.01571 1.01571 1.01571 1.01571 1.0157 1.0157 
1.0157 1.0157 1.0157 1.0157 1.0157 1.0157 1.0157 1.0157 1.0157 
1.0157 1.0157 1.0157 1.0157 1.0157 1.0157 1.0157 1.0157 1.0157 
1.0157 1.0157 1.0157 1.0157 1.0157 1.0157 1.01571 1.01571 1.01571 
1.01571 1.01571 1.01571 1.01571 1.01571 1.01571 1.01571 1.01571 1.01571 
1.01571 1.01571 1.01571 1.01571 1.01571 1.01571 1.01571 1.01571 1.01571 
1.01571 1.01571 1.01571 1.01571 1.01571 1.01571 1.01571 1.01571 1.01571 
1.01571 1.01571 1.01571 1.01571 1.01571 1.01571 1.01571 1.01571 1.01571 
1.01571 1.01572 1.01572 1.01572 1.01572 1.01572 1.01572 1.01572 1.01572 
1.01572 1.01572 1.01572 1.01572 1.01572 1.01572 1.01572 1.01572 1.01572 
1.01572 1.01572 1.01572 1.01572 1.01572 1.01572 1.01572 1.01572 1.01572 
1.01572 1.01572 1.01572 1.01572 1.01572 1.01572 1.01572 1.01572 1.01572 
1.01572 1.01572 1.01572 1.01572 1.01572 1.01573 1.01573 1.01573 1.01573 
1.01573 1.01573 1.01572 1.01572 1.01572 1.01572 1.01572 1.01572 1.01572 
1.01572 1.01572 1.01572 1.01572 1.01572 1.01572 1.01572 1.01572 1.01572 
1.01572 1.01572 1.01572 1.01572 1.01572 1.01572 1.01572 1.01572 1.01572 
1.01572 1.01572 1.01572 1.01572 1.01572 1.01572 1.01572 1.01572 1.01572 
1.01573 1.01573 1.01573 1.01573 1.01573 1.01573 1.01573 1.01573 1.01573 
1.01573 1.01573 1.01573 1.01573 1.01573 1.01573 1.01573 1.01573 1.01573 
1.01573 1.01573 1.01573 1.01573 1.01573 1.01573 1.01573 1.01573 1.01573 
1.01573 1.01573 1.01573 1.01573 1.01573 1.01573 1.01573 1.01573 1.01573 
1.01573 1.01573 1.01573 1.01573 1.01574 1.01574 1.01574 1.01574 1.01574 
1.01574 1.01574 1.01574 1.01574 1.01574 1.01574 1.01574 1.01574 1.01574 
1.01574 1.01574 1.01574 1.01574 1.01574 1.01573 1.01573 1.01573 1.01573 
1.01573 1.01573 1.01573 1.01573 1.01573 1.01574 1.01574 1.01574 1.01574 
1.01574 1.01574 1.01574 1.01574 1.01574 1.01574 1.01574 1.01574 
Water_Elev_m 1 12320 float
1 1 1 1 1 1 1 1 1 
1.00001 1.00001 1.00001 1.00001 1.00001 1.00001 1.00001 1.00001 1.00002 
1.00002 1.00002 1.00002 1.00002 1.00002 1.00002 1.00001 1.00001 1.00001 
1 0.999997 0.999992 0.999986 0.99998 0.999974 0.999968 0.999963 0.999959 
0.999955 0.999952 0.999951 0.999948 1 1 1 1 1 
0.999999 0.999999 0.999999 0.999999 0.999998 0.999998 0.999998 0.999997 0.999997 
0.999996 0.999996 0.999996 0.999996 0.999996 0.999996 0.999996 0.999997 0.999997 
0.999998 0.999999 1 1 1 1 1 1.00001 1.00001 
1.00001 1.00001 1.00001 1.00001 1.00001 1.00001 1.00001 1.00001 1 
1 1 1 1 1 1 1 1 1 
1.00001 1.00001 1.00001 1.00001 1.00001 1.00001 1.00001 1.00001 1.00001 
1.00001 1.00001 1.00001 1.00001 1.00001 1.00001 1.00001 1.00001 1 
1 1 0.999999 0.999997 0.999995 0.999994 0.999992 0.999991 0.99999 
0.999988 0.999989 0.999986 1 1 1 1 1 1 
1 1 1 1 1 1 1 1 1 
1 1 1 1 1 1 1 1 1 
1 1 1 1 1.00001 1.00001 1.00001 1.00001 1.00001 
1.00001 1.00001 1.00001 1.00001 1.00001 1.00001 1 1 1 
1 1 1 1 1 1 1 1 1.00001 
1.00001 1.00001 1.00001 1.00001 1.00001 1.00001 1.00001 1.00001 1.00001 
1.00001 1.00001 1.00001 1.00001 1.00001 1.00001 1.00001 1.00001 1.00001 
1 1 1 1 1 1 1 1 1 
1 0.999999 1 1 1 1 1 1 1 
1 1 1 1 1 1 1 1 1 
1 1 1 1 1 1 1 1.00001 1.00001 
1.00001 1.00001 1.00001 1.00001 1.00001 1.00001 1.00001 1.00001 1.00001 
1.00001 1.00001 1.00001 1.00001 1.00001 1.00001 1 1 1 
1 1 1.00001 1.00001 1.00001 1.00001 1.00001 1.00001 1.00001 
1.00001 1.00001 1.00001 1.00001 1.00001 1.00001 1.00001 1.00001 1.00001 
1.00001 1.00001 1.00001 1.00001 1.00001 1.00001 1.00001 1.00001 1.00001 
1.00001 1.00001 1.00001 1.00001 1.00001 1.00001 1.00001 1.00001 1.00001 
1 1 1 1 1 1 1 1 1 
1 1 1 1 1 1 1.00001 1.00001 1.00001 
1.00001 1.00001 1.00001 1.00001 1.00001 1.00001 1.00001 1.00001 1.00001 
1.00001 1.00001 1.00001 1.00001 1.00001 1.00001 1.00001 1.00001 1.00001 
1.00001 1.00001 1.00001 1.00001 1.00001 1.00001 1.00001 1.00001 1.00001 
1.00001 1.00001 1.00001 1.00001 1.00001 1.00001 1.00001 1.00001 1.00001 
1.00001 1.00001 1.00001 1.00001 1.00001 1.00001 1.00001 1.00001 1.00001 
1.00001 1.00001 1.00001 1.00001 1.00001 1.00001 1.00001 1.00001 1.00001 
1.00001 1.00001 1.00001 1.00001 1.00001 1.00001 1.00001 1.00001 1.00001 
1.00001 1.00001 1.00001 1.00001 1.00001 1.00001 1.00001 1.00001 1.00001 
1.00001 1.00001 1.00001 1.00001 1.00001 1.00001 1.00001 1.00001 1.00001 
1.00001 1.00001 1.00001 1.00001 1.00001 1.00001 1.00001 1.00001 1.00001 
1.00001 1.00001 1.00001 1.00001 1.00001 1.00001 1.00001 1.00001 1.00001 
1.00001 1.00001 1.00001 1.00001 1.00001 1.00001 1.00001 1.00001 1.00001 
1.00001 1.00001 1.00001 1.00001 1.00001 1.00001 1.00001 1.00001 1.00001 
1.00001 1.00001 1.00001 1.00001 1.00001 1.00001 1.00001 1.00001 1.00001 
1.00001 1.00001 1.00001 1.00001 1.00001 1.00001 1.00001 1.00001 1.00001 
1.00001 1.00001 1.00001 1.00001 1.00001 1.00001 1.00001 1.00001 1.00001 
1.00001 1.00001 1.00001 1.00001 1.00001 1.00001 1.00001 1.00001 1.00001 
1.00001 1.00001 1.00001 1.00001 1.00001 1.00001 1.00001 1.00001 1.00001 
1.00001 1.00001 1.00001 1.00001 1.00001 1.00001 1.00001 1.00001 1.00001 
1.00001 1.00001 1.00001 1.00001 1.00001 1.00001 1.00001 1.00001 1.00001 
1.00001 1.00001 1.00001 1.00001 1.00001 1.00001 1.00001 1.00001 1.00001 
1.00001 1.00001 1.00001 1.00001 1.00001 1.00001 1.00001 1.00001 1.00001 
1.00001 1.00001 1.00001 1.00001 1.00001 1.00001 1.00001 1.00001 1.00001 
1.00001 1.00001 1.00001 1.00001 1.00001 1.00001 1.00001 1.00001 1.00001 
1.00001 1.00001 1.00001 1.00001 1.00001 1.00001 1.00001 1.00001 1.00001 
1.00001 1.00001 1.00001 1.00001 1.00001 1.00001 1.00001 1.00001 1.00001 
1.00001 1.00001 1.00001 1.00001 1.00001 1.00001 1.00001 1.00001 1.00001 
1.00001 1.00001 1.00001 1.00001 1.00001 1.00001 1.00001 1.00001 1.00001 
1.00001 1.00001 1.00001 1.00001 1.00001 1.00001 1.00001 1.00001 1.00001 
1.00001 1.00001 1.00001 1.00001 1.00001 1.00001 1.00001 1.00001 1.00001 
1.00001 1.00001 1.00001 1.00001 1.00001 1.00001 1.00001 1.00001 1.00001 
1.00001 1.00001 1.00001 1.00001 1.00001 1.00001 1.00001 1.00001 1.00001 
1.00001 1.00001 1.00001 1.00001 1.00001 1.00001 1.00001 1.00001 1.00001 
1.00001 1.00001 1.00001 1.00001 1.00002 1.00001 1.00001 1.00001 1.00001 
1.00001 1.00001 1.00001 1.00001 1.00001 1.00001 1.00001 1.00001 1.00001 
1.00001 1.00001 1.00001 1.00001 1.00001 1.00001 1.00001 1.00001 1.00001 
1.00001 1.00001 1.00001 1.00001 1.00001 1.00001 1.00001 1.00001 1.00001 
1.00001 1.00001 1.00001 1.00001 1.00001 1.00001 1.00001 1.00001 1.00002 
1.00001 1.00001 1.00001 1.00001 1.00001 1.00001 1.00001 1.00001 1.00001 
1.00001 1.00001 1.00001 1.00001 1.00001 1.00001 1.00001 1.00001 1.00001 
1.00001 1.00001 1.00001 1.00001 1.00001 1.00001 1.00001 1.00001 1.00001 
1.00001 1.00001 1.00001 1.00001 1.00001 1.00001 1.00001 1.00001 1.00001 
1.00001 1.00002 1.00001 1.00002 1.00001 1.00001 1.00001 1.00001 1.00001 
1.00001 1.00001 1.00001 1.00001 1.00001 1.00001 1.00001 1.00001 1.00001 
1.00001 1.00001 1.00001 1.00001 1.00001 1.00001 1.00001 1.00001 1.00001 
1.00001 1.00001 1.00001 1.00001 1.00001 1.00001 1.00001 1.00001 1.00001 
1.00001 1.00001 1.00001 1.00001 1.00001 1.00002 1.00001 1.00002 1.00001 
1.00001 1.00001 1.00001 1.00001 1.00001 1.00001 1.00001 1.00001 1.00001 
1.00001 1.00001 1.00001 1.00001 1.00001 1.00001 1.00001 1.00001 1.00001 
1.00001 1.00001 1.00001 1.00001 1.00001 1.00001 1.00001 1.00001 1.00001 
1.00001 1.00001 1.00001 1.00001 1.00001 1.00001 1.00001 1.00002 1.00002 
1.00002 1.00001 1.00002 1.00001 1.00001 1.00001 1.00001 1.00001 1.00001 
1.00001 1.00001 1.00001 1.00001 1.00001 1.00001 1.00001 1.00001 1.00001 
1.00001 1.00001 1.00001 1.00001 1.00001 1.00001 1.00001 1.00001 1.00001 
1.00001 1.00001 1.00001 1.00001 1.00001 1.00001 1.00001 1.00001 1.00001 
1.00001 1.00001 1.00002 1.00002 1.00002 1.00002 1.00002 1.00001 1.00001 
1.00001 1.00001 1.00001 1.00001 1.00001 1.00001 1.00001 1.00001 1.00001 
1.00001 1.00001 1.00001 1.00001 1.00001 1.00001 1.00001 1.00001 1.00001 
1.00001 1.00001 1.00001 1.00001 1.00001 1.00001 1.00001 1.00001 1.00001 
1.00001 1.00001 1.00001 1.00001 1.00001 1.00002 1.00002 1.00002 1.00002 
1.00002 1.00002 1.00001 1.00001 1.00001 1.00001 1.00001 1.00001 1.00001 
1.00001 1.00001 1.00001 1.00001 1.00001 1.00001 1.00001 1.00001 1.00001 
1.00001 1.00001 1.00001 1.00001 1.00001 1.00001 1.00001 1.00001 1.00001 
1.00001 1.00001 1.00001 1.00001 1.00001 1.00001 1.00001 1.00001 1.00001 
1.00002 1.00002 1.00002 1.00002 1.00002 1.00002 1.00001 1.00001 1.00001 
1.00001 1.00001 1.00001 1.00001 1.00001 1.00001 1.00001 1.00001 1.00001 
1.00001 1.00001 1.00001 1.00001 1.00001 1.00001 1.00001 1.00001 1.00001 
1.00001 1.00001 1.00001 1.00001 1.00001 1.00001 1.00001 1.00001 1.00001 
1.00001 1.00001 1.00001 1.00002 1.00002 1.00002 1.00002 1.00002 1.00002 
1.00002 1.00001 1.00001 1.00001 1.00001 1.00001 1.00001 1.00001 1.00001 
1.00001 1.00001 1.00001 1.00001 1.00001 1.00001 1.00001 1.00001 1.00001 
1.00001 1.00001 1.00001 1.00001 1.00001 1.00001 1.00001 1.00001 1.00001 
1.00001 1.00001 1.00001 1.00001 1.00001 1.00001 1.00001 1.00002 1.00002 
1.00002 1.00002 1.00002 1.00002 1.00002 1.00001 1.00001 1.00001 1.00001 
1.00001 1.00001 1.00001 1.00001 1.00001 1.00001 1.00001 1.00001 1.00001 
1.00001 1.00001 1.00001 1.00001 1.00001 1.00001 1.00001 1.00001 1.00001 
1.00001 1.00001 1.00001 1.00001 1.00001 1.00001 1.00001 1.00001 1.00001 
1.00001 1.00001 1.00002 1.00002 1.00002 1.00002 1.00002 1.00002 1.00002 
1.00001 1.00001 1.00001 1.00001 1.00001 1.00001 1.00001 1.00001 1.00001 
1.00001 1.00001 1.00001 1.00001 1.00001 1.00001 1.00001 1.00001 1.00001 
1.00001 1.00001 1.00001 1.00001 1.00001 1.00001 1.00001 1.00001 1.00001 
1.00001 1.00001 1.00001 1.00001 1.00001 1.00001 1.00002 1.00002 1.00002 
1.00002 1.00002 1.00002 1.00002 1.00001 1.00001 1.00001 1.00001 1.00001 
1.00001 1.00001 1.00001 1.00001 1.00001 1.00001 1.00001 1.00001 1.00001 
1.00001 1.00001 1.00001 1.00001 1.00001 1.00001 1.00001 1.00001 1.00001 
1.00001 1.00001 1.00001 1.00001 1.00001 1.00001 1.00001 1.00001 1.00001 
1.00001 1.00002 1.00002 1.00002 1.00002 1.00002 1.00002 1.00002 1.00001 
1.00001 1.00001 1.00001 1.00001 1.00001 1.00001 1.00001 1.00001 1.00001 
1.00001 1.00001 1.00001 1.00001 1.00001 1.00001 1.00001 1.00001 1.00001 
1.00001 1.00001 1.00001 1.00001 1.00001 1.00001 1.00001 1.00001 1.00001 
1.00001 1.00001 1.00001 1.00001 1.00001 1.00002 1.00002 1.00002 1.00002 
1.00002 1.00002 1.00002 1.00001 1.00001 1.00001 1.00001 1.00001 1.00001 
1.00001 1.00001 1.00001 1.00001 1.00001 1.00001 1.00001 1.00001 1.00001 
1.00001 1.00001 1.00001 1.00001 1.00001 1.00001 1.00001 1.00001 1.00001 
1.00001 1.00001 1.00001 1.00001 1.00001 1.00001 1.00001 1.00001 1.00001 
1.00002 1.00002 1.00002 1.00002 1.00002 1.00002 1.00002 1.00001 1.00001 
1.00001 1.00001 1.00001 1.00001 1.00001 1.00001 1.00001 1.00001 1.00001 
1.00001 1.00001 1.00001 1.00001 1.00001 1.00001 1.00001 1.00001 1.00001 
1.00001 1.00001 1.00001 1.00001 1.00001 1.00001 1.00001 1.00001 1.00001 
1.00001 1.00001 1.00001 1.00001 1.00002 1.00002 1.00002 1.00002 1.00002 
1.00002 1.00002 1.00001 1.00001 1.00001 1.00001 1.00001 1.00001 1.00001 
1.00001 1.00001 1.00001 1.00001 1.00001 1.00001 1.00001 1.00001 1.00001 
1.00001 1.00001 1.00001 1.00001 1.00001 1.00001 1.00001 1.00001 1.00001 
1.00001 1.00001 1.00001 1.00001 1.00001 1.00001 1.00001 1.00001 1.00002 
1.00002 1.00002 1.00002 1.00002 1.00002 1.00002 1.00001 1.00001 1.00001 
1.00001 1.00001 1.00001 1.00001 1.00001 1.00001 1.00001 1.00001 1.00001 
1.00001 1.00001 1.00001 1.00001 1.00001 1.00001 1.00001 1.00001 1.00001 
1.00001 1.00001 1.00001 1.00001 1.00001 1.00001 1.00001 1.00001 1.00001 
1.00001 1.00001 1.00001 1.00001 1.00002 1.00002 1.00002 1.00002 1.00002 
1.00002 1.00001 1.00001 1.00001 1.00001 1.00001 1.00001 1.00001 1.00001 
1.00001 1.00001 1.00001 1.00001 1.00001 1.00001 1.00001 1.00001 1.00001 
1.00001 1.00001 1.00001 1.00001 1.00001 1.00001 1.00001 1.00001 1.00001 
1.00001 1.00001 1.00001 1.00001 1.00001 1.00001 1.00001 1.00001 1.00002 
1.00002 1.00002 1.00002 1.00002 1.00002 1.00001 1.00001 1.00001 1.00001 
1.00001 1.00001 1.00001 1.00001 1.00001 1.00001 1.00001 1.00001 1.00001 
1.00001 1.00001 1.00001 1.00001 1.00001 1.00001 1.00001 1.00001 1.00001 
1.00001 1.00001 1.00001 1.00001 1.00001 1.00001 1.00001 1.00001 1.00001 
1.00001 1.00001 1.00001 1.00002 1.00002 1.00002 1.00002 1.00002 1.00002 
1.00001 1.00001 1.00001 1.00001 1.00001 1.00001 1.00001 1.00001 1.00001 
1.00001 1.00001 1.00001 1.00001 1.00001 1.00001 1.00001 1.00001 1.00001 
1.00001 1.00001 1.00001 1.00001 1.00001 1.00001 1.00001 1.00001 1.00001 
1.00001 1.00001 1.00001 1.00001 1.00001 1.00001 1.00001 1.00001 1.00002 
1.00002 1.00002 1.00002 1.00002 1.00001 1.00001 1.00001 1.00001 1.00001 
1.00001 1.00001 1.00001 1.00001 1.00001 1.00001 1.00001 1.00001 1.00001 
1.00001 1.00001 1.00001 1.00001 1.00001 1.00001 1.00001 1.00001 1.00001 
1.00001 1.00001 1.00001 1.00001 1.00001 1.00001 1.00001 1.00001 1.00001 
1.00001 1.00001 1.00001 1.00002 1.00002 1.00002 1.00002 1.00002 1.00001 
1.00001 1.00001 1.00001 1.00001 1.00001 1.00001 1.00001 1.00001 1.00001 
1.00001 1.00001 1.00001 1.00001 1.00001 1.00001 1.00001 1.00001 1.00001 
1.00001 1.00001 1.00001 1.00001 1.00001 1.00001 1.00001 1.00001 1.00001 
1.00001 1.00001 1.00001 1.00001 1.00001 1.00001 1.00001 1.00002 1.00002 
1.00002 1.00002 1.00002 1.00001 1.00001 1.00001 1.00001 1.00001 1.00001 
1.00001 1.00001 1.00001 1.00001 1.00001 1.00001 1.00001 1.00001 1.00001 
1.00001 1.00001 1.00001 1.00001 1.00001 1.00001 1.00001 1.00001 1.00001 
1.00001 1.00001 1.00001 1.00001 1.00001 1.00001 1.00001 1.00001 1.00001 
1.00001 1.00001 1.00002 1.00002 1.00002 1.00001 1.00002 1.00001 1 
1 1 1 1 1 1.00001 1.00001 1.00001 1.00001 
1.00001 1.00001 1.00001 1.00001 1.00001 1.00001 1.00001 1.00001 1.00001 
1.00001 1.00001 1.00001 1.00001 1.00001 1.00001 1.00001 1.00001 1.00001 
1.00001 1.00001 1.00001 1.00001 1.00001 1.00001 1.00001 1.00001 1.00002 
1.00001 1.00002 1.00001 1 1 1 1 1 1 
1 1 1 1 1 1.00001 1.00001 1.00001 1.00001 
1.00001 1.00001 1.00001 1.00001 1.00001 1.00001 1.00001 1.00001 1.00001 
1.00001 1.00001 1.00001 1.00001 1.00001 1.00001 1.00001 1.00001 1.00001 
1.00001 1.00001 1.00001 1.00002 1.00001 1.00002 1.00001 1 1 
1 1 1 1 1 1 1 1 1 
1 1 1 1 1.00001 1.00001 1.00001 1.00001 1.00001 
1.00001 1.00001 1.00001 1.00001 1.00001 1.00001 1.00001 1.00001 1.00001 
1.00001 1.00001 1.00001 1.00001 1.00001 1.00001 1.00001 1.00002 1.00001 
1.00002 1.00001 1 1 1 1 1 1 1 
1 1 1 1 1 1 1 1 1 
1 1 1.00001 1.00001 1.00001 1.00001 1.00001 1.00001 1.00001 
1.00001 1.00001 1.00001 1.00001 1.00001 1.00001 1.00001 1.00001 1.00001 
1.00001 1.00001 1.00002 1.00001 1.00002 1.00001 1 1 1 
1 1 1 1 1 1 1 1 1 
1 1 1 1 1 1 1 1 1 
1.00001 1.00001 1.00001 1.00001 1.00001 1.00001 1.00001 1.00001 1.00001 
1.00001 1.00001 1.00001 1.00001 1.00001 1.00001 1.00002 1.00001 1.00002 
1.00001 1 1 1 1 1 1 1 1 
1 1 1 1 1 1 1 1 1 
1 1 1 1 1 1 1.00001 1.00001 1.00001 
1.00001 1.00001 1.00001 1.00001 1.00001 1.00001 1.00001 1.00001 1.00001 
1.00001 1.00001 1.00001 1.00002 1.00001 1 1 1 1 
1 1 1 1 1 1 1 1 1 
1 1 1 1 1 1 1 1 1 
1 1 1.00001 1.00001 1.00001 1.00001 1.00001 1.00001 1.00001 
1.00001 1.00001 1.00001 1.00001 1.00001 1.00001 1.00001 1.00002 1.00001 
1 1 1 1 1 1 1 1 1 
1 1 1 1 1 1 1 1 1 
1 1 1 1 1 1 1 1.00001 1.00001 
1.00001 1.00001 1.00001 1.00001 1.00001 1.00001 1.00001 1.00001 1.00001 
1.00001 1.00001 1.00002 1.00001 1 1 1 1 1 
1 1 1 1 1 1 1 1 1 
1 1 1 1 1 1 1 1 1 
1 1 1 1.00001 1.00001 1.00001 1.00001 1.00001 1.00001 
1.00001 1.00001 1.00001 1.00001 1.00001 1.00001 1.00002 1.00001 1 
1 1 1 1 1 1 1 1 1 
1 1 1 1 1 1 1 1 1 
1 1 1 1 1 1 1 1 1.00001 
1.00001 1.00001 1.00001 1.00001 1.00001 1.00001 1.00001 1.00001 1.00001 
1.00001 1.00002 1.00001 0.999999 1 1 1 1 1 
1 1 1 1 1 1 1 1 1 
1 1 1 1 1 1 1 1 1 
1 1 1 1.00001 1.00001 1.00001 1.00001 1.00001 1.00001 
1.00001 1.00001 1.00001 1.00001 1.00001 1.00002 1.00001 0.999999 0.999999 
0.999999 0.999999 0.999999 0.999999 0.999999 0.999999 0.999999 0.999999 1 
1 1 1 1 1 1 1 1 1 
1 1 1 1 1 1 1 1 1.00001 
1.00001 1.00001 1.00001 1.00001 1.00001 1.00001 1.00001 1.00001 1.00001 
1.00001 1.00001 0.999998 0.999998 0.999998 0.999998 0.999998 0.999998 0.999999 
0.999999 0.999999 0.999999 0.999999 0.999999 0.999999 0.999999 0.999999 1 
1 1 1 1 1 1 1 1 1 
1 1 1 1 1.00001 1.00001 1.00001 1.00001 1.00001 
1.00001 1.00001 1.00001 1.00001 1.00001 1.00001 0.999997 0.999998 0.999998 
0.999998 0.999998 0.999998 0.999998 0.999998 0.999998 0.999998 0.999998 0.999998 
0.999999 0.999999 0.999999 0.999999 0.999999 0.999999 1 1 1 
1 1 1 1 1 1 1 1 1.00001 
1.00001 1.00001 1.00001 1.00001 1.00001 1.00001 1.00001 1.00001 1.00001 
1.00001 0.999997 0.999997 0.999997 0.999997 0.999997 0.999997 0.999997 0.999997 
0.999997 0.999997 0.999998 0.999998 0.999998 0.999998 0.999998 0.999998 0.999998 
0.999999 0.999999 0.999999 0.999999 0.999999 1 1 1 1 
1 1 1 1 1.00001 1.00001 1.00001 1.00001 1.00001 
1.00001 1.00001 1.00001 1.00001 1.00001 0.999996 0.999996 0.999996 0.999996 
0.999996 0.999996 0.999996 0.999997 0.999997 0.999997 0.999997 0.999997 0.999997 
0.999997 0.999997 0.999998 0.999998 0.999998 0.999998 0.999998 0.999999 0.999999 
0.999999 0.999999 1 1 1 1 1 1 1.00001 
1.00001 1.00001 1.00001 1.00001 1.00001 1.00001 1.00001 1.00001 1.00001 
0.999995 0.999996 0.999995 0.999996 0.999996 0.999996 0.999996 0.999996 0.999996 
0.999996 0.999996 0.999996 0.999996 0.999997 0.999997 0.999997 0.999997 0.999997 
0.999997 0.999998 0.999998 0.999998 0.999999 0.999999 0.999999 0.999999 1 
1 1 1 1 1.00001 1.00001 1.00001 1.00001 1.00001 
1.00001 1.00001 1.00001 1.00001 0.999995 0.999995 0.999995 0.999995 0.999995 
0.999995 0.999995 0.999995 0.999995 0.999995 0.999995 0.999996 0.999996 0.999996 
0.999996 0.999996 0.999996 0.999997 0.999997 0.999997 0.999997 0.999997 0.999998 
0.999998 0.999999 0.999999 1 1 1 1 1 1.00001 
1.00001 1.00001 1.00001 1.00001 1.00001 1.00001 1.00001 1.00001 0.999994 
0.999994 0.999994 0.999994 0.999994 0.999994 0.999994 0.999994 0.999994 0.999995 
0.999995 0.999995 0.999995 0.999995 0.999995 0.999995 0.999996 0.999996 0.999996 
0.999996 0.999996 0.999997 0.999997 0.999997 0.999998 0.999998 0.999999 1 
1 1 1 1 1.00001 1.00001 1.00001 1.00001 1.00001 
1.00001 1.00001 1.00001 0.999993 0.999993 0.999993 0.999993 0.999993 0.999993 
0.999993 0.999994 0.999994 0.999994 0.999994 0.999994 0.999994 0.999994 0.999994 
0.999995 0.999995 0.999995 0.999995 0.999996 0.999996 0.999996 0.999996 0.999997 
0.999997 0.999998 0.999998 0.999999 1 1 1 1 1.00001 
1.00001 1.00001 1.00001 1.00001 1.00001 1.00001 1 0.999992 0.999992 
0.999992 0.999992 0.999992 0.999992 0.999993 0.999993 0.999993 0.999993 0.999993 
0.999993 0.999993 0.999994 0.999994 0.999994 0.999994 0.999994 0.999995 0.999995 
0.999995 0.999995 0.999996 0.999996 0.999996 0.999997 0.999997 0.999999 0.999999 
1 1 1 1 1.00001 1.00001 1.00001 1.00001 1.00001 
1.00001 1 0.999991 0.999992 0.999991 0.999992 0.999992 0.999992 0.999992 
0.999992 0.999992 0.999992 0.999992 0.999992 0.999992 0.999993 0.999993 0.999993 
0.999993 0.999994 0.999994 0.999994 0.999994 0.999995 0.999995 0.999995 0.999995 
0.999996 0.999996 0.999998 0.999999 1 1 1 1 1 
1.00001 1.00001 1.00001 1.00001 1.00001 1 0.99999 0.999991 0.999991 
0.999991 0.999991 0.999991 0.999991 0.999991 0.999991 0.999991 0.999991 0.999992 
0.999992 0.999992 0.999992 0.999992 0.999992 0.999993 0.999993 0.999993 0.999993 
0.999994 0.999994 0.999994 0.999995 0.999995 0.999996 0.999997 0.999998 0.999999 
1 1 1 1 1.00001 1.00001 1.00001 1.00001 1.00001 
1 0.99999 0.99999 0.99999 0.99999 0.99999 0.99999 0.99999 0.99999 
0.99999 0.99999 0.999991 0.999991 0.999991 0.999991 0.999991 0.999991 0.999992 
0.999992 0.999992 0.999992 0.999993 0.999993 0.999993 0.999994 0.999994 0.999995 
0.999995 0.999996 0.999997 0.999999 1 1 1 1 1 
1.00001 1.00001 1.00001 1.00001 1 0.999989 0.999989 0.999989 0.999989 
0.999989 0.999989 0.999989 0.999989 0.999989 0.99999 0.99999 0.99999 0.99999 
0.99999 0.99999 0.999991 0.999991 0.999991 0.999991 0.999992 0.999992 0.999992 
0.999992 0.999993 0.999993 0.999994 0.999994 0.999996 0.999996 0.999998 0.999999 
1 1 1 1 1 1.00001 1 1.00001 1 
0.999988 0.999988 0.999988 0.999988 0.999988 0.999988 0.999988 0.999988 0.999988 
0.999989 0.999989 0.999989 0.999989 0.999989 0.999989 0.99999 0.99999 0.99999 
0.99999 0.999991 0.999991 0.999991 0.999992 0.999992 0.999992 0.999993 0.999993 
0.999995 0.999996 0.999997 0.999998 1 1 1 1 1 
1.00001 1 1.00001 1 0.999987 0.999987 0.999987 0.999987 0.999987 
0.999987 0.999987 0.999987 0.999987 0.999988 0.999988 0.999988 0.999988 0.999988 
0.999989 0.999989 0.999989 0.999989 0.99999 0.99999 0.99999 0.99999 0.999991 
0.999991 0.999991 0.999992 0.999992 0.999994 0.999995 0.999996 0.999998 0.999999 
1 1 1 1 1.00001 1 1.00001 1 0.999986 
0.999986 0.999986 0.999986 0.999986 0.999986 0.999986 0.999986 0.999987 0.999987 
0.999987 0.999987 0.999987 0.999987 0.999988 0.999988 0.999988 0.999988 0.999989 
0.999989 0.999989 0.99999 0.99999 0.99999 0.999991 0.999991 0.999992 0.999993 
0.999994 0.999995 0.999997 0.999998 1 1 1 1 1 
1 1.00001 1 0.999985 0.999985 0.999985 0.999985 0.999985 0.999985 
0.999985 0.999986 0.999986 0.999986 0.999986 0.999986 0.999986 0.999987 0.999987 
0.999987 0.999987 0.999987 0.999988 0.999988 0.999988 0.999989 0.999989 0.999989 
0.99999 0.99999 0.999991 0.999992 0.999993 0.999994 0.999996 0.999997 0.999999 
1 1 1 1 1 1.00001 0.999999 0.999984 0.999984 
0.999984 0.999984 0.999984 0.999984 0.999984 0.999985 0.999985 0.999985 0.999985 
0.999985 0.999985 0.999986 0.999986 0.999986 0.999986 0.999987 0.999987 0.999987 
0.999987 0.999988 0.999988 0.999988 0.999989 0.999989 0.99999 0.999991 0.999992 
0.999993 0.999995 0.999997 0.999998 0.999999 1 1 1 1 
1.00001 0.999998 0.999983 0.999983 0.999983 0.999983 0.999983 0.999983 0.999983 
0.999983 0.999984 0.999984 0.999984 0.999984 0.999984 0.999985 0.999985 0.999985 
0.999985 0.999986 0.999986 0.999986 0.999987 0.999987 0.999987 0.999987 0.999988 
0.999988 0.999989 0.99999 0.999992 0.999993 0.999994 0.999996 0.999997 0.999999 
1 1 1 1 1.00001 0.999998 0.999982 0.999982 0.999982 
0.999982 0.999982 0.999982 0.999982 0.999982 0.999983 0.999983 0.999983 0.999983 
0.999983 0.999984 0.999984 0.999984 0.999984 0.999985 0.999985 0.999985 0.999986 
0.999986 0.999986 0.999987 0.999987 0.999987 0.999988 0.999989 0.999991 0.999992 
0.999994 0.999995 0.999997 0.999998 1 1 1 1 1.00001 
0.999997 0.999981 0.999981 0.999981 0.999981 0.999981 0.999981 0.999981 0.999981 
0.999982 0.999982 0.999982 0.999982 0.999982 0.999983 0.999983 0.999983 0.999983 
0.999984 0.999984 0.999984 0.999985 0.999985 0.999985 0.999986 0.999986 0.999986 
0.999988 0.999988 0.99999 0.999991 0.999993 0.999994 0.999996 0.999997 0.999999 
0.999999 1 1 1.00001 0.999996 0.99998 0.99998 0.99998 0.99998 
0.99998 0.99998 0.99998 0.99998 0.999981 0.999981 0.999981 0.999981 0.999981 
0.999982 0.999982 0.999982 0.999982 0.999983 0.999983 0.999983 0.999984 0.999984 
0.999984 0.999985 0.999985 0.999986 0.999987 0.999987 0.999989 0.99999 0.999992 
0.999993 0.999995 0.999996 0.999998 0.999999 1 0.999999 1 0.999995 
0.999979 0.999979 0.999979 0.999979 0.999979 0.999979 0.999979 0.999979 0.999979 
0.99998 0.99998 0.99998 0.99998 0.999981 0.999981 0.999981 0.999981 0.999982 
0.999982 0.999982 0.999983 0.999983 0.999983 0.999984 0.999984 0.999985 0.999986 
0.999986 0.999988 0.999989 0.999991 0.999992 0.999994 0.999996 0.999997 0.999998 
1 0.999998 1 0.999995 0.999977 0.999978 0.999978 0.999978 0.999978 
0.999978 0.999978 0.999978 0.999978 0.999979 0.999979 0.999979 0.999979 0.999979 
0.99998 0.99998 0.99998 0.999981 0.999981 0.999981 0.999982 0.999982 0.999982 
0.999983 0.999983 0.999984 0.999985 0.999985 0.999987 0.999988 0.99999 0.999992 
0.999993 0.999995 0.999997 0.999997 1 0.999998 1 0.999994 0.999976 
0.999977 0.999976 0.999977 0.999977 0.999977 0.999977 0.999977 0.999977 0.999977 
0.999978 0.999978 0.999978 0.999978 0.999979 0.999979 0.999979 0.99998 0.99998 
0.99998 0.999981 0.999981 0.999981 0.999982 0.999982 0.999983 0.999983 0.999984 
0.999986 0.999987 0.999989 0.999991 0.999993 0.999994 0.999996 0.999997 0.999999 
0.999997 1 0.999993 0.999975 0.999976 0.999975 0.999976 0.999976 0.999976 
0.999976 0.999976 0.999976 0.999976 0.999977 0.999977 0.999977 0.999977 0.999978 
0.999978 0.999978 0.999979 0.999979 0.999979 0.99998 0.99998 0.99998 0.999981 
0.999981 0.999982 0.999982 0.999983 0.999984 0.999986 0.999988 0.99999 0.999992 
0.999993 0.999995 0.999996 0.999998 0.999996 1 0.999992 0.999974 0.999974 
0.999974 0.999974 0.999974 0.999975 0.999975 0.999975 0.999975 0.999975 0.999975 
0.999976 0.999976 0.999976 0.999976 0.999977 0.999977 0.999977 0.999978 0.999978 
0.999979 0.999979 0.999979 0.99998 0.99998 0.999981 0.999981 0.999983 0.999983 
0.999986 0.999987 0.999989 0.999991 0.999992 0.999994 0.999995 0.999998 0.999996 
1 0.999992 0.999973 0.999973 0.999973 0.999973 0.999973 0.999973 0.999973 
0.999974 0.999974 0.999974 0.999974 0.999974 0.999975 0.999975 0.999975 0.999976 
0.999976 0.999976 0.999977 0.999977 0.999977 0.999978 0.999978 0.999979 0.999979 
0.99998 0.99998 0.999982 0.999982 0.999985 0.999986 0.999988 0.99999 0.999992 
0.999994 0.999994 0.999997 0.999995 1 0.999991 0.999972 0.999972 0.999972 
0.999972 0.999972 0.999972 0.999972 0.999973 0.999973 0.999973 0.999973 0.999973 
0.999974 0.999974 0.999974 0.999975 0.999975 0.999975 0.999976 0.999976 0.999976 
0.999977 0.999977 0.999978 0.999978 0.999979 0.999979 0.999981 0.999981 0.999984 
0.999985 0.999987 0.999989 0.999991 0.999993 0.999994 0.999996 0.999994 1 
0.99999 0.99997 0.999971 0.999971 0.999971 0.999971 0.999971 0.999971 0.999971 
0.999971 0.999972 0.999972 0.999972 0.999972 0.999973 0.999973 0.999973 0.999974 
0.999974 0.999974 0.999975 0.999975 0.999976 0.999976 0.999977 0.999977 0.999978 
0.999978 0.99998 0.99998 0.999983 0.999984 0.999986 0.999988 0.99999 0.999992 
0.999993 0.999996 0.999993 1 0.999989 0.999969 0.99997 0.999969 0.99997 
0.99997 0.99997 0.99997 0.99997 0.99997 0.99997 0.999971 0.999971 0.999971 
0.999972 0.999972 0.999972 0.999973 0.999973 0.999973 0.999974 0.999974 0.999975 
0.999975 0.999976 0.999976 0.999977 0.999977 0.999979 0.999979 0.999982 0.999983 
0.999985 0.999987 0.999989 0.999991 0.999992 0.999995 0.999993 0.999999 0.999988 
0.999968 0.999968 0.999968 0.999968 0.999968 0.999969 0.999969 0.999969 0.999969 
0.999969 0.999969 0.99997 0.99997 0.99997 0.999971 0.999971 0.999971 0.999972 
0.999972 0.999973 0.999973 0.999974 0.999974 0.999975 0.999975 0.999976 0.999976 
0.999977 0.999978 0.999981 0.999982 0.999984 0.999986 0.999988 0.99999 0.999991 
0.999994 0.999992 0.999998 0.999988 0.999967 0.999967 0.999967 0.999967 0.999967 
0.999967 0.999967 0.999968 0.999968 0.999968 0.999968 0.999969 0.999969 0.999969 
0.999969 0.99997 0.99997 0.999971 0.999971 0.999972 0.999972 0.999972 0.999973 
0.999973 0.999974 0.999975 0.999975 0.999976 0.999977 0.999979 0.999981 0.999983 
0.999985 0.999987 0.99999 0.99999 0.999993 0.999991 0.999998 0.999987 0.999965 
0.999966 0.999965 0.999966 0.999966 0.999966 0.999966 0.999966 0.999966 0.999967 
0.999967 0.999967 0.999968 0.999968 0.999968 0.999969 0.999969 0.999969 0.99997 
0.99997 0.999971 0.999971 0.999972 0.999972 0.999973 0.999973 0.999974 0.999975 
0.999976 0.999978 0.99998 0.999982 0.999985 0.999986 0.999989 0.99999 0.999993 
0.99999 0.999997 0.999986 0.999964 0.999964 0.999964 0.999964 0.999964 0.999965 
0.999965 0.999965 0.999965 0.999965 0.999966 0.999966 0.999966 0.999967 0.999967 
0.999967 0.999968 0.999968 0.999969 0.999969 0.99997 0.99997 0.999971 0.999971 
0.999972 0.999972 0.999973 0.999974 0.999975 0.999977 0.999979 0.999981 0.999984 
0.999986 0.999988 0.999989 0.999992 0.99999 0.999996 0.999985 0.999963 0.999963 
0.999963 0.999963 0.999963 0.999963 0.999963 0.999964 0.999964 0.999964 0.999964 
0.999965 0.999965 0.999965 0.999966 0.999966 0.999967 0.999967 0.999967 0.999968 
0.999968 0.999969 0.999969 0.99997 0.999971 0.999971 0.999972 0.999973 0.999974 
0.999976 0.999978 0.99998 0.999983 0.999985 0.999987 0.999988 0.999991 0.999989 
0.999996 0.999984 0.999961 0.999962 0.999961 0.999962 0.999962 0.999962 0.999962 
0.999962 0.999963 0.999963 0.999963 0.999963 0.999964 0.999964 0.999964 0.999965 
0.999965 0.999966 0.999966 0.999967 0.999967 0.999968 0.999968 0.999969 0.999969 
0.99997 0.999971 0.999972 0.999973 0.999974 0.999977 0.999979 0.999982 0.999984 
0.999986 0.999987 0.99999 0.999988 0.999995 0.999983 0.99996 0.99996 0.99996 
0.99996 0.99996 0.999961 0.999961 0.999961 0.999961 0.999961 0.999962 0.999962 
0.999962 0.999963 0.999963 0.999964 0.999964 0.999964 0.999965 0.999965 0.999966 
0.999967 0.999967 0.999968 0.999968 0.999969 0.99997 0.99997 0.999972 0.999973 
0.999976 0.999978 0.999981 0.999983 0.999985 0.999986 0.99999 0.999987 0.999994 
0.999983 0.999959 0.999959 0.999959 0.999959 0.999959 0.999959 0.999959 0.99996 
0.99996 0.99996 0.99996 0.999961 0.999961 0.999961 0.999962 0.999962 0.999963 
0.999963 0.999964 0.999964 0.999965 0.999965 0.999966 0.999966 0.999967 0.999968 
0.999969 0.999969 0.999971 0.999972 0.999975 0.999977 0.99998 0.999982 0.999985 
0.999985 0.999989 0.999986 0.999994 0.999982 0.999957 0.999958 0.999957 0.999958 
0.999958 0.999958 0.999958 0.999958 0.999958 0.999959 0.999959 0.999959 0.99996 
0.99996 0.999961 0.999961 0.999961 0.999962 0.999962 0.999963 0.999964 0.999964 
0.999965 0.999965 0.999966 0.999966 0.999968 0.999968 0.99997 0.99997 0.999974 
0.999976 0.999979 0.999981 0.999984 0.999985 0.999988 0.999986 0.999993 0.999981 
0.999956 0.999956 0.999956 0.999956 0.999956 0.999956 0.999957 0.999957 0.999957 
0.999957 0.999958 0.999958 0.999958 0.999959 0.999959 0.99996 0.99996 0.999961 
0.999961 0.999962 0.999962 0.999963 0.999963 0.999964 0.999965 0.999965 0.999966 
0.999967 0.999969 0.999969 0.999973 0.999974 0.999978 0.99998 0.999983 0.999984 
0.999987 0.999985 0.999992 0.99998 0.999954 0.999955 0.999955 0.999955 0.999955 
0.999955 0.999955 0.999955 0.999956 0.999956 0.999956 0.999957 0.999957 0.999957 
0.999958 0.999958 0.999959 0.999959 0.99996 0.99996 0.999961 0.999962 0.999962 
0.999963 0.999964 0.999964 0.999965 0.999965 0.999968 0.999968 0.999972 0.999973 
0.999977 0.999979 0.999982 0.999983 0.999986 0.999984 0.999992 0.999979 0.999953 
0.999953 0.999953 0.999953 0.999953 0.999954 0.999954 0.999954 0.999954 0.999955 
0.999955 0.999955 0.999956 0.999956 0.999956 0.999957 0.999957 0.999958 0.999959 
0.999959 0.99996 0.99996 0.999961 0.999961 0.999962 0.999963 0.999964 0.999964 
0.999966 0.999967 0.999971 0.999972 0.999976 0.999978 0.999981 0.999982 0.999986 
0.999983 0.999991 0.999978 0.999951 0.999952 0.999952 0.999952 0.999952 0.999952 
0.999952 0.999953 0.999953 0.999953 0.999953 0.999954 0.999954 0.999955 0.999955 
0.999956 0.999956 0.999957 0.999957 0.999958 0.999958 0.999959 0.99996 0.99996 
0.999961 0.999962 0.999963 0.999963 0.999965 0.999965 0.99997 0.999971 0.999975 
0.999977 0.99998 0.999981 0.999985 0.999982 0.99999 0.999977 0.99995 0.99995 
0.99995 0.99995 0.99995 0.999951 0.999951 0.999951 0.999951 0.999952 0.999952 
0.999952 0.999953 0.999953 0.999954 0.999954 0.999955 0.999955 0.999956 0.999956 
0.999957 0.999958 0.999958 0.999959 0.99996 0.99996 0.999961 0.999962 0.999964 
0.999964 0.999968 0.99997 0.999974 0.999976 0.999979 0.99998 0.999984 0.999981 
0.99999 0.999976 0.999948 0.999949 0.999949 0.999949 0.999949 0.999949 0.999949 
0.99995 0.99995 0.99995 0.999951 0.999951 0.999951 0.999952 0.999952 0.999953 
0.999953 0.999954 0.999954 0.999955 0.999956 0.999956 0.999957 0.999958 0.999958 
0.999959 0.99996 0.999961 0.999962 0.999963 0.999967 0.999969 0.999972 0.999975 
0.999978 0.999979 0.999983 0.999981 0.999989 0.999976 0.999947 0.999947 0.999947 
0.999947 0.999947 0.999948 0.999948 0.999948 0.999948 0.999949 0.999949 0.999949 
0.99995 0.99995 0.999951 0.999951 0.999952 0.999952 0.999953 0.999954 0.999954 
0.999955 0.999956 0.999956 0.999957 0.999958 0.999959 0.999959 0.999961 0.999962 
0.999966 0.999968 0.999971 0.999974 0.999977 0.999978 0.999982 0.99998 0.999988 
0.999975 0.999945 0.999946 0.999946 0.999946 0.999946 0.999946 0.999946 0.999947 
0.999947 0.999947 0.999948 0.999948 0.999948 0.999949 0.999949 0.99995 0.99995 
0.999951 0.999952 0.999952 0.999953 0.999954 0.999954 0.999955 0.999956 0.999957 
0.999958 0.999958 0.99996 0.999961 0.999964 0.999967 0.99997 0.999973 0.999976 
0.999978 0.999981 0.999979 0.999988 0.999974 0.999944 0.999944 0.999944 0.999944 
0.999944 0.999945 0.999945 0.999945 0.999945 0.999946 0.999946 0.999946 0.999947 
0.999947 0.999948 0.999948 0.999949 0.99995 0.99995 0.999951 0.999951 0.999952 
0.999953 0.999954 0.999954 0.999955 0.999956 0.999957 0.999958 0.99996 0.999962 
0.999966 0.999969 0.999972 0.999975 0.999977 0.999981 0.999978 0.999987 0.999973 
0.999942 0.999943 0.999942 0.999943 0.999943 0.999943 0.999943 0.999944 0.999944 
0.999944 0.999945 0.999945 0.999945 0.999946 0.999946 0.999947 0.999947 0.999948 
0.999949 0.999949 0.99995 0.999951 0.999952 0.999952 0.999953 0.999954 0.999955 
0.999956 0.999957 0.999959 0.999961 0.999965 0.999968 0.999971 0.999974 0.999976 
0.99998 0.999977 0.999986 0.999972 0.999941 0.999941 0.999941 0.999941 0.999941 
0.999942 0.999942 0.999942 0.999942 0.999943 0.999943 0.999943 0.999944 0.999944 
0.999945 0.999945 0.999946 0.999947 0.999947 0.999948 0.999949 0.999949 0.99995 
0.999951 0.999952 0.999953 0.999953 0.999955 0.999955 0.999958 0.999959 0.999964 
0.999966 0.99997 0.999973 0.999975 0.999979 0.999976 0.999985 0.999971 0.999939 
0.99994 0.999939 0.99994 0.99994 0.99994 0.99994 0.99994 0.999941 0.999941 
0.999941 0.999942 0.999942 0.999943 0.999943 0.999944 0.999944 0.999945 0.999946 
0.999946 0.999947 0.999948 0.999949 0.99995 0.99995 0.999951 0.999952 0.999954 
0.999954 0.999957 0.999958 0.999963 0.999965 0.999969 0.999972 0.999974 0.999978 
0.999975 0.999985 0.99997 0.999937 0.999938 0.999938 0.999938 0.999938 0.999938 
0.999938 0.999939 0.999939 0.999939 0.99994 0.99994 0.999941 0.999941 0.999942 
0.999942 0.999943 0.999944 0.999944 0.999945 0.999946 0.999947 0.999947 0.999948 
0.999949 0.99995 0.999951 0.999952 0.999953 0.999956 0.999956 0.999961 0.999964 
0.999968 0.999971 0.999973 0.999977 0.999974 0.999984 0.999969 0.999936 0.999936 
0.999936 0.999936 0.999936 0.999937 0.999937 0.999937 0.999937 0.999938 0.999938 
0.999939 0.999939 0.99994 0.99994 0.999941 0.999941 0.999942 0.999943 0.999943 
0.999944 0.999945 0.999946 0.999947 0.999948 0.999949 0.999949 0.999951 0.999951 
0.999954 0.999955 0.99996 0.999963 0.999967 0.99997 0.999972 0.999976 0.999974 
0.999983 0.999968 0.999934 0.999935 0.999934 0.999935 0.999935 0.999935 0.999935 
0.999936 0.999936 0.999936 0.999937 0.999937 0.999937 0.999938 0.999939 0.999939 
0.99994 0.99994 0.999941 0.999942 0.999943 0.999944 0.999944 0.999945 0.999946 
0.999947 0.999948 0.99995 0.99995 0.999953 0.999953 0.999959 0.999961 0.999966 
0.999969 0.999971 0.999975 0.999973 0.999982 0.999967 0.999933 0.999933 0.999933 
0.999933 0.999933 0.999933 0.999934 0.999934 0.999934 0.999935 0.999935 0.999935 
0.999936 0.999936 0.999937 0.999938 0.999938 0.999939 0.99994 0.99994 0.999941 
0.999942 0.999943 0.999944 0.999945 0.999946 0.999946 0.999948 0.999949 0.999951 
0.999952 0.999958 0.99996 0.999964 0.999968 0.99997 0.999974 0.999972 0.999982 
0.999966 0.999931 0.999931 0.999931 0.999932 0.999932 0.999932 0.999932 0.999932 
0.999933 0.999933 0.999933 0.999934 0.999934 0.999935 0.999935 0.999936 0.999937 
0.999937 0.999938 0.999939 0.99994 0.999941 0.999941 0.999942 0.999943 0.999944 
0.999945 0.999947 0.999947 0.99995 0.99995 0.999957 0.999959 0.999963 0.999967 
0.999969 0.999974 0.999971 0.999981 0.999965 0.999929 0.99993 0.999929 0.99993 
0.99993 0.99993 0.99993 0.999931 0.999931 0.999931 0.999932 0.999932 0.999933 
0.999933 0.999934 0.999934 0.999935 0.999936 0.999936 0.999937 0.999938 0.999939 
0.99994 0.999941 0.999942 0.999943 0.999944 0.999945 0.999946 0.999949 0.999949 
0.999955 0.999958 0.999962 0.999966 0.999968 0.999973 0.99997 0.99998 0.999964 
0.999928 0.999928 0.999928 0.999928 0.999928 0.999929 0.999929 0.999929 0.999929 
0.99993 0.99993 0.99993 0.999931 0.999931 0.999932 0.999933 0.999933 0.999934 
0.999935 0.999936 0.999936 0.999937 0.999938 0.999939 0.99994 0.999941 0.999942 
0.999944 0.999944 0.999947 0.999947 0.999954 0.999956 0.999961 0.999965 0.999967 
0.999972 0.999969 0.999979 0.999963 0.999926 0.999926 0.999926 0.999927 0.999926 
0.999927 0.999927 0.999927 0.999928 0.999928 0.999928 0.999929 0.999929 0.99993 
0.99993 0.999931 0.999932 0.999932 0.999933 0.999934 0.999935 0.999936 0.999937 
0.999938 0.999939 0.99994 0.999941 0.999942 0.999943 0.999945 0.999946 0.999952 
0.999955 0.999959 0.999964 0.999966 0.999971 0.999968 0.999978 0.999962 0.999924 
0.999925 0.999924 0.999925 0.999925 0.999925 0.999925 0.999926 0.999926 0.999926 
0.999927 0.999927 0.999928 0.999928 0.999929 0.999929 0.99993 0.999931 0.999931 
0.999932 0.999933 0.999934 0.999935 0.999936 0.999937 0.999938 0.999939 0.999941 
0.999942 0.999944 0.999945 0.999951 0.999954 0.999958 0.999963 0.999965 0.99997 
0.999967 0.999978 0.999961 0.999922 0.999923 0.999923 0.999923 0.999923 0.999923 
0.999924 0.999924 0.999924 0.999924 0.999925 0.999925 0.999926 0.999926 0.999927 
0.999928 0.999928 0.999929 0.99993 0.999931 0.999932 0.999932 0.999933 0.999934 
0.999936 0.999937 0.999938 0.999939 0.99994 0.999942 0.999943 0.999949 0.999953 
0.999957 0.999962 0.999963 0.999969 0.999966 0.999977 0.99996 0.999921 0.999921 
0.999921 0.999921 0.999921 0.999922 0.999922 0.999922 0.999922 0.999923 0.999923 
0.999924 0.999924 0.999925 0.999925 0.999926 0.999927 0.999927 0.999928 0.999929 
0.99993 0.999931 0.999932 0.999933 0.999934 0.999935 0.999936 0.999937 0.999939 
0.99994 0.999943 0.999947 0.999952 0.999955 0.99996 0.999962 0.999968 0.999965 
0.999976 0.999958 0.999919 0.99992 0.999919 0.99992 0.99992 0.99992 0.99992 
0.99992 0.999921 0.999921 0.999921 0.999922 0.999922 0.999923 0.999923 0.999924 
0.999925 0.999925 0.999926 0.999927 0.999928 0.999929 0.99993 0.999931 0.999932 
0.999933 0.999935 0.999936 0.999937 0.999939 0.999942 0.999945 0.999951 0.999954 
0.999959 0.999961 0.999967 0.999964 0.999975 0.999957 0.999917 0.999918 0.999918 
0.999918 0.999918 0.999918 0.999918 0.999919 0.999919 0.999919 0.99992 0.99992 
0.999921 0.999921 0.999922 0.999922 0.999923 0.999924 0.999925 0.999925 0.999926 
0.999927 0.999928 0.999929 0.999931 0.999932 0.999933 0.999934 0.999936 0.999937 
0.999941 0.999943 0.99995 0.999952 0.999958 0.99996 0.999966 0.999963 0.999974 
0.999956 0.999916 0.999916 0.999916 0.999916 0.999916 0.999917 0.999917 0.999917 
0.999917 0.999918 0.999918 0.999918 0.999919 0.999919 0.99992 0.99992 0.999921 
0.999922 0.999923 0.999924 0.999925 0.999926 0.999927 0.999928 0.999929 0.99993 
0.999932 0.999933 0.999935 0.999935 0.999939 0.999941 0.999948 0.999951 0.999957 
0.999959 0.999965 0.999962 0.999973 0.999955 0.999914 0.999915 0.999914 0.999915 
0.999914 0.999915 0.999915 0.999915 0.999915 0.999916 0.999916 0.999917 0.999917 
0.999918 0.999918 0.999919 0.999919 0.99992 0.999921 0.999922 0.999923 0.999924 
0.999925 0.999926 0.999927 0.999928 0.99993 0.999931 0.999933 0.999934 0.999938 
0.999939 0.999947 0.999949 0.999956 0.999958 0.999964 0.999961 0.999973 0.999954 
0.999912 0.999913 0.999912 0.999913 0.999913 0.999913 0.999913 0.999913 0.999914 
0.999914 0.999914 0.999915 0.999915 0.999916 0.999916 0.999917 0.999918 0.999918 
0.999919 0.99992 0.999921 0.999922 0.999923 0.999924 0.999926 0.999927 0.999928 
0.999929 0.999932 0.999932 0.999936 0.999937 0.999946 0.999948 0.999955 0.999956 
0.999963 0.99996 0.999972 0.999953 0.99991 0.999911 0.999911 0.999911 0.999911 
0.999911 0.999911 0.999912 0.999912 0.999912 0.999913 0.999913 0.999913 0.999914 
0.999914 0.999915 0.999916 0.999916 0.999917 0.999918 0.999919 0.99992 0.999921 
0.999922 0.999924 0.999925 0.999927 0.999928 0.99993 0.99993 0.999935 0.999935 
0.999944 0.999947 0.999954 0.999955 0.999962 0.999958 0.999971 0.999952 0.999909 
0.999909 0.999909 0.999909 0.999909 0.99991 0.99991 0.99991 0.99991 0.99991 
0.999911 0.999911 0.999911 0.999912 0.999913 0.999913 0.999914 0.999915 0.999915 
0.999916 0.999917 0.999918 0.999919 0.999921 0.999922 0.999923 0.999925 0.999926 
0.999928 0.999929 0.999933 0.999934 0.999943 0.999945 0.999952 0.999954 0.999961 
0.999957 0.99997 0.999951 0.999907 0.999908 0.999907 0.999908 0.999907 0.999908 
0.999908 0.999908 0.999908 0.999909 0.999909 0.999909 0.99991 0.99991 0.999911 
0.999911 0.999912 0.999913 0.999914 0.999914 0.999915 0.999916 0.999918 0.999919 
0.99992 0.999921 0.999923 0.999924 0.999927 0.999927 0.999931 0.999932 0.999942 
0.999944 0.999951 0.999953 0.99996 0.999956 0.999969 0.999949 0.999905 0.999906 
0.999905 0.999906 0.999906 0.999906 0.999906 0.999906 0.999906 0.999907 0.999907 
0.999907 0.999908 0.999908 0.999909 0.999909 0.99991 0.999911 0.999912 0.999913 
0.999914 0.999915 0.999916 0.999917 0.999918 0.999919 0.999921 0.999922 0.999925 
0.999925 0.99993 0.99993 0.99994 0.999942 0.99995 0.999952 0.999959 0.999955 
0.999968 0.999948 0.999903 0.999904 0.999904 0.999904 0.999904 0.999904 0.999904 
0.999905 0.999905 0.999905 0.999905 0.999906 0.999906 0.999906 0.999907 0.999907 
0.999908 0.999909 0.99991 0.999911 0.999912 0.999913 0.999914 0.999915 0.999916 
0.999918 0.999919 0.99992 0.999923 0.999923 0.999928 0.999928 0.999939 0.999941 
0.999948 0.99995 0.999958 0.999954 0.999967 0.999947 0.999902 0.999902 0.999902 
0.999902 0.999902 0.999902 0.999902 0.999903 0.999903 0.999903 0.999903 0.999904 
0.999904 0.999904 0.999905 0.999906 0.999906 0.999907 0.999908 0.999909 0.99991 
0.999911 0.999912 0.999913 0.999914 0.999916 0.999917 0.999919 0.999921 0.999922 
0.999926 0.999926 0.999937 0.999939 0.999947 0.999949 0.999956 0.999953 0.999966 
0.999946 0.9999 0.999901 0.9999 0.999901 0.9999 0.999901 0.999901 0.999901 
0.999901 0.999901 0.999902 0.999902 0.999902 0.999903 0.999903 0.999904 0.999904 
0.999905 0.999906 0.999907 0.999908 0.999909 0.99991 0.999911 0.999912 0.999914 
0.999916 0.999917 0.999919 0.99992 0.999924 0.999924 0.999935 0.999938 0.999946 
0.999948 0.999955 0.999952 0.999965 0.999944 0.999898 0.999899 0.999898 0.999899 
0.999899 0.999899 0.999899 0.999899 0.999899 0.999899 0.9999 0.9999 0.9999 
0.999901 0.999901 0.999902 0.999902 0.999903 0.999904 0.999905 0.999905 0.999907 
0.999908 0.999909 0.99991 0.999912 0.999914 0.999915 0.999917 0.999918 0.999922 
0.999922 0.999934 0.999936 0.999944 0.999947 0.999954 0.999951 0.999964 0.999943 
0.999897 0.999897 0.999897 0.999897 0.999897 0.999897 0.999897 0.999897 0.999897 
0.999898 0.999898 0.999898 0.999898 0.999899 0.999899 0.9999 0.9999 0.999901 
0.999902 0.999902 0.999903 0.999904 0.999906 0.999907 0.999908 0.99991 0.999911 
0.999913 0.999915 0.999916 0.99992 0.99992 0.999932 0.999935 0.999942 0.999945 
0.999953 0.999949 0.999963 0.999942 0.999895 0.999896 0.999895 0.999896 0.999895 
0.999896 0.999895 0.999896 0.999896 0.999896 0.999896 0.999896 0.999896 0.999897 
0.999897 0.999898 0.999898 0.999899 0.9999 0.9999 0.999901 0.999902 0.999904 
0.999905 0.999906 0.999908 0.999909 0.999911 0.999913 0.999914 0.999918 0.999919 
0.999929 0.999933 0.999941 0.999944 0.999952 0.999948 0.999962 0.999941 0.999893 
0.999894 0.999893 0.999894 0.999894 0.999894 0.999894 0.999894 0.999894 0.999894 
0.999894 0.999894 0.999894 0.999895 0.999895 0.999896 0.999896 0.999897 0.999897 
0.999898 0.999899 0.9999 0.999901 0.999903 0.999904 0.999906 0.999907 0.999909 
0.999911 0.999913 0.999916 0.999917 0.999927 0.999932 0.999939 0.999943 0.99995 
0.999947 0.999961 0.999939 0.999891 0.999892 0.999892 0.999892 0.999892 0.999892 
0.999892 0.999892 0.999892 0.999892 0.999892 0.999892 0.999893 0.999893 0.999893 
0.999894 0.999894 0.999895 0.999895 0.999896 0.999897 0.999898 0.999899 0.9999 
0.999902 0.999903 0.999905 0.999907 0.999909 0.999911 0.999913 0.999916 0.999924 
0.999931 0.999937 0.999942 0.999949 0.999946 0.99996 0.999938 0.99989 0.999891 
0.99989 0.99989 0.99989 0.99989 0.99989 0.99989 0.99989 0.99989 0.99989 
0.99989 0.999891 0.999891 0.999891 0.999891 0.999892 0.999892 0.999893 0.999894 
0.999895 0.999896 0.999897 0.999898 0.9999 0.999901 0.999903 0.999905 0.999907 
0.999909 0.999911 0.999915 0.999921 0.999929 0.999935 0.99994 0.999948 0.999945 
0.999959 0.999937 0.999888 0.999889 0.999888 0.999889 0.999888 0.999889 0.999888 
0.999888 0.999888 0.999888 0.999888 0.999889 0.999889 0.999889 0.999889 0.999889 
0.99989 0.99989 0.999891 0.999892 0.999893 0.999893 0.999895 0.999896 0.999897 
0.999899 0.999901 0.999903 0.999904 0.999907 0.999909 0.999914 0.999919 0.999928 
0.999934 0.999939 0.999946 0.999943 0.999958 0.999936 0.999887 0.999887 0.999887 
0.999887 0.999887 0.999887 0.999887 0.999887 0.999887 0.999887 0.999887 0.999887 
0.999887 0.999887 0.999887 0.999887 0.999888 0.999888 0.999889 0.999889 0.99989 
0.999891 0.999892 0.999894 0.999895 0.999897 0.999898 0.9999 0.999902 0.999905 
0.999907 0.999912 0.999916 0.999927 0.999932 0.999938 0.999945 0.999942 0.999958 
0.999934 0.999885 0.999886 0.999885 0.999885 0.999885 0.999885 0.999885 0.999885 
0.999885 0.999885 0.999885 0.999885 0.999885 0.999885 0.999885 0.999885 0.999886 
0.999886 0.999887 0.999887 0.999888 0.999889 0.99989 0.999891 0.999893 0.999894 
0.999896 0.999898 0.9999 0.999903 0.999904 0.99991 0.999913 0.999925 0.99993 
0.999936 0.999944 0.999941 0.999957 0.999933 0.999883 0.999884 0.999883 0.999884 
0.999883 0.999884 0.999883 0.999883 0.999883 0.999883 0.999883 0.999883 0.999883 
0.999883 0.999883 0.999883 0.999883 0.999884 0.999884 0.999885 0.999886 0.999887 
0.999888 0.999889 0.99989 0.999892 0.999894 0.999896 0.999897 0.999901 0.999902 
0.999908 0.999911 0.999923 0.999928 0.999935 0.999942 0.99994 0.999956 0.999932 
0.999882 0.999882 0.999882 0.999882 0.999882 0.999882 0.999882 0.999882 0.999881 
0.999881 0.999881 0.999881 0.999881 0.999881 0.999881 0.999881 0.999881 0.999881 
0.999882 0.999882 0.999883 0.999884 0.999885 0.999886 0.999888 0.999889 0.999891 
0.999893 0.999895 0.999898 0.9999 0.999906 0.999908 0.999922 0.999926 0.999933 
0.999941 0.999939 0.999955 0.999931 0.99988 0.999881 0.99988 0.999881 0.99988 
0.99988 0.99988 0.99988 0.99988 0.999879 0.999879 0.999879 0.999879 0.999879 
0.999879 0.999879 0.999879 0.999879 0.99988 0.99988 0.999881 0.999882 0.999883 
0.999884 0.999885 0.999887 0.999889 0.999891 0.999893 0.999896 0.999897 0.999904 
0.999906 0.99992 0.999924 0.999932 0.99994 0.999937 0.999954 0.99993 0.999879 
0.999879 0.999879 0.999879 0.999879 0.999879 0.999878 0.999878 0.999878 0.999878 
0.999877 0.999877 0.999877 0.999877 0.999877 0.999877 0.999877 0.999877 0.999877 
0.999878 0.999878 0.999879 0.99988 0.999881 0.999883 0.999884 0.999886 0.999888 
0.99989 0.999894 0.999895 0.999901 0.999903 0.999918 0.999922 0.999931 0.999939 
0.999936 0.999953 0.999929 0.999877 0.999878 0.999877 0.999877 0.999877 0.999877 
0.999877 0.999876 0.999876 0.999876 0.999875 0.999875 0.999875 0.999875 0.999875 
0.999875 0.999875 0.999875 0.999875 0.999875 0.999876 0.999877 0.999878 0.999879 
0.99988 0.999882 0.999883 0.999886 0.999888 0.999891 0.999892 0.999899 0.9999 
0.999917 0.999921 0.999929 0.999937 0.999935 0.999952 0.999928 0.999875 0.999876 
0.999876 0.999876 0.999875 0.999875 0.999875 0.999875 0.999874 0.999874 0.999874 
0.999873 0.999873 0.999873 0.999873 0.999872 0.999872 0.999872 0.999873 0.999873 
0.999873 0.999874 0.999875 0.999876 0.999877 0.999879 0.999881 0.999883 0.999885 
0.999888 0.999889 0.999896 0.999897 0.999915 0.999919 0.999927 0.999936 0.999934 
0.999952 0.999927 0.999874 0.999875 0.999874 0.999874 0.999874 0.999874 0.999873 
0.999873 0.999873 0.999872 0.999872 0.999871 0.999871 0.999871 0.99987 0.99987 
0.99987 0.99987 0.99987 0.99987 0.999871 0.999871 0.999872 0.999873 0.999875 
0.999876 0.999878 0.99988 0.999882 0.999886 0.999887 0.999893 0.999894 0.999913 
0.999917 0.999926 0.999935 0.999933 0.999951 0.999926 0.999873 0.999873 0.999873 
0.999873 0.999872 0.999872 0.999872 0.999871 0.999871 0.999871 0.99987 0.99987 
0.999869 0.999869 0.999868 0.999868 0.999868 0.999868 0.999868 0.999868 0.999868 
0.999869 0.99987 0.99987 0.999872 0.999873 0.999875 0.999877 0.999879 0.999883 
0.999884 0.999891 0.999891 0.999911 0.999915 0.999924 0.999934 0.999932 0.999951 
0.999926 0.999871 0.999872 0.999871 0.999871 0.999871 0.999871 0.99987 0.99987 
0.999869 0.999869 0.999868 0.999868 0.999867 0.999867 0.999866 0.999866 0.999866 
0.999865 0.999865 0.999865 0.999866 0.999866 0.999867 0.999868 0.999869 0.99987 
0.999872 0.999874 0.999877 0.99988 0.999882 0.999888 0.999888 0.999908 0.999913 
0.999923 0.999933 0.999931 0.99995 0.999925 0.99987 0.99987 0.99987 0.99987 
0.999869 0.999869 0.999869 0.999868 0.999868 0.999867 0.999866 0.999866 0.999865 
0.999865 0.999864 0.999864 0.999863 0.999863 0.999863 0.999863 0.999863 0.999863 
0.999864 0.999865 0.999866 0.999867 0.999869 0.999871 0.999874 0.999877 0.999879 
0.999885 0.999885 0.999906 0.999911 0.999921 0.999932 0.99993 0.99995 0.999925 
0.999868 0.999869 0.999868 0.999869 0.999868 0.999868 0.999867 0.999867 0.999866 
0.999865 0.999865 0.999864 0.999863 0.999863 0.999862 0.999861 0.999861 0.99986 
0.99986 0.99986 0.99986 0.99986 0.999861 0.999862 0.999863 0.999864 0.999866 
0.999868 0.999871 0.999874 0.999876 0.999882 0.999882 0.999903 0.999909 0.999919 
0.999931 0.99993 0.99995 0.999925 0.999867 0.999868 0.999867 0.999867 0.999866 
0.999866 0.999866 0.999865 0.999864 0.999864 0.999863 0.999862 0.999861 0.999861 
0.99986 0.999859 0.999859 0.999858 0.999858 0.999857 0.999857 0.999857 0.999858 
0.999859 0.99986 0.999861 0.999863 0.999865 0.999868 0.99987 0.999873 0.999878 
0.99988 0.9999 0.999908 0.999917 0.99993 0.999929 0.99995 0.999925 0.999866 
0.999866 0.999866 0.999866 0.999865 0.999865 0.999864 0.999864 0.999863 0.999862 
0.999861 0.99986 0.99986 0.999859 0.999858 0.999857 0.999856 0.999856 0.999855 
0.999855 0.999855 0.999855 0.999855 0.999855 0.999857 0.999858 0.99986 0.999862 
0.999865 0.999867 0.99987 0.999875 0.999877 0.999897 0.999906 0.999915 0.99993 
0.999929 0.99995 0.999925 0.999864 0.999865 0.999864 0.999864 0.999864 0.999863 
0.999863 0.999862 0.999861 0.99986 0.99986 0.999859 0.999858 0.999857 0.999856 
0.999855 0.999854 0.999853 0.999853 0.999852 0.999852 0.999852 0.999852 0.999852 
0.999854 0.999854 0.999857 0.999858 0.999862 0.999864 0.999868 0.999871 0.999875 
0.999893 0.999904 0.999913 0.999929 0.999928 0.999951 0.999926 0.999863 0.999864 
0.999863 0.999863 0.999862 0.999862 0.999861 0.999861 0.99986 0.999859 0.999858 
0.999857 0.999856 0.999855 0.999854 0.999853 0.999852 0.999851 0.99985 0.999849 
0.999849 0.999849 0.999849 0.999849 0.999851 0.999851 0.999854 0.999855 0.999858 
0.99986 0.999865 0.999867 0.999873 0.999889 0.999903 0.999911 0.999929 0.999928 
0.999952 0.999927 0.999862 0.999863 0.999862 0.999862 0.999861 0.999861 0.99986 
0.999859 0.999858 0.999857 0.999856 0.999855 0.999854 0.999853 0.999852 0.99985 
0.999849 0.999848 0.999848 0.999847 0.999846 0.999846 0.999846 0.999846 0.999847 
0.999847 0.99985 0.999851 0.999855 0.999856 0.999862 0.999864 0.999871 0.999884 
0.999901 0.999909 0.999929 0.999928 0.999954 0.999928 0.999861 0.999861 0.999861 
0.999861 0.99986 0.999859 0.999858 0.999858 0.999857 0.999856 0.999855 0.999853 
0.999852 0.999851 0.99985 0.999848 0.999847 0.999846 0.999845 0.999844 0.999843 
0.999842 0.999843 0.999842 0.999844 0.999844 0.999847 0.999847 0.999852 0.999852 
0.999859 0.99986 0.999869 0.999879 0.9999 0.999907 0.999929 0.999929 0.999955 
0.999931 0.99986 0.99986 0.999859 0.999859 0.999859 0.999858 0.999857 0.999856 
0.999855 0.999854 0.999853 0.999852 0.99985 0.999849 0.999848 0.999846 0.999845 
0.999843 0.999842 0.999841 0.99984 0.999839 0.99984 0.999839 0.99984 0.99984 
0.999843 0.999843 0.999848 0.999848 0.999855 0.999855 0.999867 0.999875 0.999898 
0.999905 0.999929 0.99993 0.999958 0.999933 0.999858 0.999859 0.999858 0.999858 
0.999857 0.999857 0.999856 0.999855 0.999854 0.999853 0.999851 0.99985 0.999849 
0.999847 0.999846 0.999844 0.999843 0.999841 0.99984 0.999838 0.999838 0.999836 
0.999836 0.999835 0.999837 0.999836 0.999839 0.999839 0.999844 0.999844 0.999852 
0.999851 0.999864 0.99987 0.999897 0.999903 0.999929 0.999931 0.99996 0.999936 
0.999857 0.999858 0.999857 0.999857 0.999856 0.999856 0.999855 0.999854 0.999852 
0.999851 0.99985 0.999848 0.999847 0.999845 0.999844 0.999842 0.99984 0.999838 
0.999837 0.999835 0.999835 0.999833 0.999833 0.999832 0.999833 0.999832 0.999835 
0.999835 0.99984 0.99984 0.999848 0.999847 0.999861 0.999865 0.999895 0.999901 
0.99993 0.999933 0.999964 0.999941 0.999856 0.999857 0.999856 0.999856 0.999855 
0.999854 0.999853 0.999852 0.999851 0.99985 0.999848 0.999847 0.999845 0.999843 
0.999842 0.99984 0.999838 0.999836 0.999835 0.999833 0.999832 0.99983 0.99983 
0.999828 0.999829 0.999828 0.999832 0.99983 0.999837 0.999835 0.999845 0.999842 
0.999857 0.99986 0.999894 0.999899 0.999931 0.999935 0.999968 0.999945 0.999855 
0.999856 0.999855 0.999855 0.999854 0.999853 0.999852 0.999851 0.99985 0.999848 
0.999847 0.999845 0.999843 0.999842 0.99984 0.999838 0.999836 0.999834 0.999832 
0.99983 0.999829 0.999826 0.999826 0.999824 0.999826 0.999824 0.999828 0.999826 
0.999833 0.999831 0.999841 0.999838 0.999854 0.999855 0.999892 0.999898 0.999932 
0.999938 0.999973 0.999951 0.999854 0.999855 0.999854 0.999854 0.999853 0.999852 
0.999851 0.99985 0.999849 0.999847 0.999845 0.999844 0.999842 0.99984 0.999838 
0.999835 0.999834 0.999831 0.999829 0.999827 0.999826 0.999823 0.999823 0.99982 
0.999822 0.99982 0.999823 0.999821 0.999828 0.999826 0.999837 0.999833 0.99985 
0.99985 0.999891 0.999896 0.999934 0.999942 0.999979 0.999958 0.999853 0.999854 
0.999853 0.999853 0.999852 0.999851 0.99985 0.999849 0.999847 0.999846 0.999844 
0.999842 0.99984 0.999838 0.999836 0.999833 0.999831 0.999829 0.999827 0.999824 
0.999823 0.99982 0.999819 0.999817 0.999818 0.999815 0.999819 0.999817 0.999824 
0.999821 0.999833 0.999828 0.999846 0.999844 0.999889 0.999894 0.999936 0.999946 
0.999987 0.999967 0.999852 0.999853 0.999852 0.999852 0.999851 0.99985 0.999849 
0.999848 0.999846 0.999844 0.999843 0.999841 0.999839 0.999836 0.999834 0.999831 
0.999829 0.999826 0.999824 0.999821 0.99982 0.999816 0.999816 0.999813 0.999814 
0.999811 0.999815 0.999812 0.999819 0.999816 0.999828 0.999823 0.999842 0.999839 
0.999887 0.999893 0.999939 0.999952 0.999995 0.999976 0.999852 0.999852 0.999851 
0.999851 0.99985 0.999849 0.999848 0.999847 0.999845 0.999843 0.999841 0.999839 
0.999837 0.999835 0.999832 0.999829 0.999827 0.999824 0.999822 0.999818 0.999817 
0.999813 0.999812 0.999809 0.99981 0.999806 0.99981 0.999807 0.999815 0.99981 
0.999824 0.999817 0.999838 0.999833 0.999885 0.999892 0.999942 0.999958 1 
0.999988 0.999851 0.999851 0.99985 0.99985 0.999849 0.999848 0.999847 0.999845 
0.999844 0.999842 0.99984 0.999838 0.999835 0.999833 0.99983 0.999827 0.999825 
0.999822 0.999819 0.999815 0.999813 0.99981 0.999809 0.999805 0.999806 0.999801 
0.999806 0.999801 0.99981 0.999805 0.999819 0.999812 0.999834 0.999826 0.999883 
0.999891 0.999946 0.999965 1.00002 1 0.99985 0.999851 0.999849 0.999849 
0.999848 0.999847 0.999846 0.999844 0.999843 0.999841 0.999839 0.999836 0.999834 
0.999831 0.999829 0.999825 0.999823 0.999819 0.999817 0.999813 0.99981 0.999806 
0.999805 0.999801 0.999802 0.999797 0.999801 0.999796 0.999805 0.999799 0.999814 
0.999806 0.999829 0.99982 0.999881 0.99989 0.999951 0.999974 1.00003 1.00002 
0.999849 0.99985 0.999849 0.999848 0.999847 0.999846 0.999845 0.999843 0.999842 
0.99984 0.999838 0.999835 0.999833 0.99983 0.999827 0.999824 0.999821 0.999817 
0.999814 0.99981 0.999807 0.999803 0.999802 0.999796 0.999797 0.999792 0.999796 
0.99979 0.9998 0.999793 0.999809 0.9998 0.999824 0.999813 0.999878 0.999889 
0.999956 0.999985 1.00004 1.00003 0.999848 0.999849 0.999848 0.999848 0.999846 
0.999846 0.999844 0.999842 0.999841 0.999839 0.999836 0.999834 0.999831 0.999828 
0.999825 0.999822 0.999819 0.999815 0.999812 0.999807 0.999804 0.999799 0.999798 
0.999792 0.999793 0.999787 0.999791 0.999784 0.999794 0.999786 0.999803 0.999793 
0.999819 0.999806 0.999876 0.999889 0.999963 0.999996 1.00006 1.00005 0.999848 
0.999848 0.999847 0.999847 0.999846 0.999845 0.999843 0.999842 0.99984 0.999838 
0.999835 0.999833 0.99983 0.999827 0.999824 0.99982 0.999817 0.999812 0.999809 
0.999804 0.999801 0.999796 0.999794 0.999788 0.999789 0.999781 0.999786 0.999778 
0.999789 0.999779 0.999798 0.999786 0.999814 0.999799 0.999873 0.999889 0.99997 
1.00001 1.00008 1.00008 0.999847 0.999848 0.999847 0.999846 0.999845 0.999844 
0.999842 0.999841 0.999839 0.999837 0.999834 0.999831 0.999829 0.999825 0.999822 
0.999818 0.999815 0.99981 0.999807 0.999801 0.999798 0.999792 0.99979 0.999784 
0.999784 0.999776 0.999781 0.999772 0.999783 0.999772 0.999792 0.999779 0.999808 
0.999792 0.999869 0.999889 0.999978 1.00003 1.0001 1.0001 0.999846 0.999847 
0.999846 0.999846 0.999844 0.999843 0.999842 0.99984 0.999838 0.999836 0.999833 
0.99983 0.999827 0.999824 0.99982 0.999816 0.999813 0.999808 0.999804 0.999799 
0.999795 0.999789 0.999787 0.999779 0.99978 0.999771 0.999776 0.999765 0.999777 
0.999765 0.999786 0.999772 0.999802 0.999785 0.999865 0.99989 0.999988 1.00004 
1.00013 1.00013 0.999846 0.999846 0.999845 0.999845 0.999844 0.999843 0.999841 
0.999839 0.999837 0.999835 0.999832 0.999829 0.999826 0.999822 0.999819 0.999815 
0.999811 0.999806 0.999802 0.999796 0.999792 0.999785 0.999783 0.999775 0.999775 
0.999765 0.99977 0.999758 0.999771 0.999757 0.99978 0.999764 0.999796 0.999778 
0.999861 0.999891 0.999999 1.00006 1.00016 1.00017 0.999845 0.999846 0.999845 
0.999844 0.999843 0.999842 0.99984 0.999838 0.999836 0.999834 0.999831 0.999828 
0.999825 0.999821 0.999817 0.999813 0.999809 0.999804 0.9998 0.999793 0.99979 
0.999782 0.999779 0.99977 0.999771 0.999759 0.999765 0.999751 0.999765 0.999749 
0.999774 0.999756 0.99979 0.999771 0.999855 0.999893 1.00001 1.00009 1.00019 
1.0002 0.999845 0.999845 0.999844 0.999844 0.999842 0.999841 0.999839 0.999838 
0.999835 0.999833 0.99983 0.999827 0.999824 0.99982 0.999816 0.999811 0.999807 
0.999802 0.999797 0.999791 0.999787 0.999779 0.999776 0.999766 0.999766 0.999754 
0.999759 0.999744 0.999759 0.999741 0.999767 0.999747 0.999784 0.999765 0.999849 
0.999894 1.00003 1.00011 1.00023 1.00025 0.999844 0.999845 0.999844 0.999843 
0.999842 0.999841 0.999839 0.999837 0.999835 0.999832 0.999829 0.999826 0.999823 
0.999819 0.999815 0.99981 0.999806 0.9998 0.999795 0.999788 0.999784 0.999775 
0.999772 0.999762 0.999761 0.999748 0.999754 0.999737 0.999752 0.999731 0.99976 
0.999737 0.999777 0.999758 0.999842 0.999897 1.00004 1.00014 1.00027 1.00029 
0.999844 0.999844 0.999843 0.999843 0.999841 0.99984 0.999838 0.999836 0.999834 
0.999831 0.999828 0.999825 0.999822 0.999817 0.999813 0.999808 0.999804 0.999798 
0.999793 0.999786 0.999781 0.999772 0.999769 0.999757 0.999757 0.999742 0.999748 
0.999729 0.999745 0.999722 0.999753 0.999727 0.999771 0.999749 0.999836 0.9999 
1.00006 1.00018 1.00032 1.00035 0.999844 0.999844 0.999843 0.999842 0.999841 
0.99984 0.999838 0.999836 0.999833 0.999831 0.999828 0.999824 0.999821 0.999816 
0.999812 0.999807 0.999802 0.999796 0.999791 0.999783 0.999778 0.999769 0.999765 
0.999753 0.999752 0.999736 0.999742 0.999721 0.999738 0.999712 0.999746 0.999716 
0.999764 0.99974 0.99983 0.999903 1.00008 1.00022 1.00037 1.00041 0.999843 
0.999844 0.999843 0.999842 0.999841 0.999839 0.999837 0.999835 0.999833 0.99983 
0.999827 0.999823 0.99982 0.999815 0.999811 0.999806 0.999801 0.999794 0.999789 
0.999781 0.999776 0.999765 0.999761 0.999748 0.999747 0.99973 0.999736 0.999713 
0.999731 0.999701 0.999738 0.999703 0.999758 0.999728 0.999826 0.999907 1.00011 
1.00026 1.00043 1.00048 0.999843 0.999843 0.999842 0.999842 0.99984 0.999839 
0.999837 0.999835 0.999832 0.999829 0.999826 0.999822 0.999819 0.999814 0.99981 
0.999804 0.999799 0.999792 0.999787 0.999778 0.999773 0.999762 0.999758 0.999744 
0.999743 0.999724 0.99973 0.999704 0.999724 0.99969 0.99973 0.99969 0.999751 
0.999716 0.999821 0.999912 1.00014 1.0003 1.00049 1.00055 0.999843 0.999843 
0.999842 0.999841 0.99984 0.999838 0.999836 0.999834 0.999832 0.999829 0.999825 
0.999822 0.999818 0.999813 0.999809 0.999803 0.999798 0.999791 0.999785 0.999776 
0.999771 0.999759 0.999755 0.99974 0.999738 0.999718 0.999724 0.999696 0.999716 
0.999678 0.999722 0.999676 0.999743 0.999701 0.999818 0.999918 1.00017 1.00036 
1.00056 1.00064 0.999843 0.999843 0.999842 0.999841 0.99984 0.999838 0.999836 
0.999834 0.999831 0.999828 0.999825 0.999821 0.999817 0.999812 0.999808 0.999802 
0.999796 0.999789 0.999783 0.999774 0.999768 0.999756 0.999751 0.999735 0.999734 
0.999712 0.999718 0.999687 0.999708 0.999666 0.999713 0.99966 0.999736 0.999686 
0.999816 0.999925 1.0002 1.00041 1.00065 1.00073 0.999842 0.999843 0.999842 
0.999841 0.999839 0.999838 0.999836 0.999833 0.999831 0.999828 0.999824 0.99982 
0.999816 0.999812 0.999807 0.999801 0.999795 0.999788 0.999781 0.999772 0.999766 
0.999753 0.999748 0.999731 0.999729 0.999705 0.999711 0.999678 0.9997 0.999653 
0.999704 0.999644 0.999729 0.999668 0.999816 0.999933 1.00024 1.00048 1.00073 
1.00083 0.999842 0.999843 0.999841 0.999841 0.999839 0.999838 0.999835 0.999833 
0.99983 0.999827 0.999824 0.99982 0.999816 0.999811 0.999806 0.9998 0.999794 
0.999786 0.99978 0.99977 0.999763 0.99975 0.999745 0.999727 0.999725 0.999699 
0.999705 0.999669 0.999692 0.99964 0.999694 0.999625 0.999721 0.999649 0.999817 
0.99994 1.00028 1.00055 1.00083 1.00095 0.999842 0.999842 0.999841 0.99984 
0.999839 0.999837 0.999835 0.999833 0.99983 0.999827 0.999823 0.999819 0.999815 
0.99981 0.999805 0.999799 0.999793 0.999785 0.999778 0.999768 0.999761 0.999748 
0.999742 0.999723 0.99972 0.999693 0.999699 0.999659 0.999684 0.999625 0.999684 
0.999606 0.999712 0.999627 0.999817 0.999948 1.00033 1.00064 1.00094 1.00107 
0.999842 0.999842 0.999841 0.99984 0.999839 0.999837 0.999835 0.999832 0.99983 
0.999826 0.999823 0.999819 0.999814 0.999809 0.999804 0.999798 0.999792 0.999784 
0.999777 0.999766 0.999759 0.999745 0.999739 0.999719 0.999716 0.999687 0.999693 
0.99965 0.999675 0.99961 0.999674 0.999584 0.999703 0.999602 0.999816 0.999958 
1.00038 1.00073 1.00107 1.00121 0.999842 0.999842 0.999841 0.99984 0.999839 
0.999837 0.999835 0.999832 0.999829 0.999826 0.999822 0.999818 0.999814 0.999809 
0.999803 0.999797 0.999791 0.999782 0.999775 0.999765 0.999757 0.999743 0.999736 
0.999715 0.999712 0.999681 0.999687 0.99964 0.999666 0.999595 0.999663 0.999561 
0.999694 0.999575 0.999814 0.99997 1.00044 1.00083 1.0012 1.00136 0.999842 
0.999842 0.999841 0.99984 0.999838 0.999837 0.999834 0.999832 0.999829 0.999826 
0.999822 0.999818 0.999813 0.999808 0.999803 0.999796 0.99979 0.999781 0.999774 
0.999763 0.999755 0.99974 0.999733 0.999712 0.999708 0.999676 0.999681 0.999631 
0.999658 0.999579 0.999651 0.999536 0.999683 0.999544 0.99981 0.999986 1.00051 
1.00095 1.00135 1.00153 0.999842 0.999842 0.999841 0.99984 0.999838 0.999837 
0.999834 0.999832 0.999829 0.999826 0.999822 0.999818 0.999813 0.999808 0.999802 
0.999795 0.999789 0.99978 0.999773 0.999761 0.999754 0.999738 0.999731 0.999708 
0.999704 0.99967 0.999675 0.999621 0.999649 0.999563 0.999639 0.999508 0.999672 
0.999508 0.999806 1.00001 1.00059 1.00108 1.00151 1.00171 0.999842 0.999842 
0.999841 0.99984 0.999838 0.999837 0.999834 0.999832 0.999829 0.999825 0.999822 
0.999817 0.999813 0.999807 0.999802 0.999795 0.999788 0.999779 0.999772 0.99976 
0.999752 0.999736 0.999728 0.999705 0.9997 0.999665 0.999669 0.999612 0.99964 
0.999546 0.999627 0.999479 0.99966 0.999468 0.999801 1.00003 1.00068 1.00122 
1.00168 1.00191 0.999842 0.999842 0.999841 0.99984 0.999838 0.999837 0.999834 
0.999832 0.999829 0.999825 0.999821 0.999817 0.999812 0.999807 0.999801 0.999794 
0.999787 0.999778 0.999771 0.999759 0.99975 0.999734 0.999726 0.999702 0.999697 
0.999659 0.999664 0.999603 0.999631 0.999528 0.999614 0.999447 0.999647 0.999421 
0.999795 1.00006 1.00078 1.00138 1.00187 1.00212 0.999842 0.999842 0.999841 
0.99984 0.999838 0.999837 0.999834 0.999831 0.999828 0.999825 0.999821 0.999817 
0.999812 0.999806 0.999801 0.999794 0.999787 0.999778 0.99977 0.999758 0.999749 
0.999732 0.999724 0.999699 0.999693 0.999655 0.999658 0.999593 0.999622 0.999511 
0.9996 0.999413 0.999632 0.999367 0.999789 1.00009 1.00089 1.00155 1.00207 
1.00235 0.999842 0.999843 0.999841 0.99984 0.999838 0.999837 0.999834 0.999831 
0.999828 0.999825 0.999821 0.999817 0.999812 0.999806 0.9998 0.999793 0.999786 
0.999777 0.999769 0.999757 0.999748 0.99973 0.999722 0.999696 0.99969 0.99965 
0.999653 0.999585 0.999613 0.999493 0.999586 0.999377 0.999615 0.999304 0.999781 
1.00014 1.00101 1.00174 1.00229 1.00259 0.999843 0.999843 0.999841 0.99984 
0.999838 0.999837 0.999834 0.999831 0.999828 0.999825 0.999821 0.999816 0.999812 
0.999806 0.9998 0.999793 0.999786 0.999776 0.999768 0.999756 0.999746 0.999729 
0.99972 0.999694 0.999687 0.999646 0.999648 0.999576 0.999605 0.999475 0.999571 
0.999338 0.999597 0.99923 0.999773 1.00019 1.00115 1.00195 1.00253 1.00285 
0.999843 0.999843 0.999841 0.99984 0.999838 0.999837 0.999834 0.999831 0.999828 
0.999825 0.999821 0.999816 0.999811 0.999806 0.9998 0.999792 0.999785 0.999776 
0.999767 0.999755 0.999745 0.999728 0.999718 0.999692 0.999684 0.999641 0.999643 
0.999568 0.999597 0.999458 0.999556 0.999297 0.999576 0.999144 0.999763 1.00026 
1.00131 1.00218 1.00278 1.00313 0.999843 0.999843 0.999842 0.99984 0.999839 
0.999837 0.999834 0.999831 0.999828 0.999825 0.999821 0.999816 0.999811 0.999806 
0.999799 0.999792 0.999785 0.999775 0.999767 0.999754 0.999744 0.999726 0.999717 
0.99969 0.999682 0.999638 0.999639 0.999561 0.999589 0.99944 0.999541 0.999254 
0.999553 0.999042 0.999753 1.00035 1.00149 1.00243 1.00305 1.00342 0.999843 
0.999843 0.999842 0.999841 0.999839 0.999837 0.999834 0.999832 0.999828 0.999825 
0.999821 0.999816 0.999811 0.999805 0.999799 0.999792 0.999785 0.999775 0.999766 
0.999753 0.999744 0.999725 0.999715 0.999688 0.999679 0.999635 0.999635 0.999554 
0.999581 0.999424 0.999527 0.99921 0.999526 0.998923 0.999741 1.00046 1.00168 
1.00271 1.00333 1.00373 0.999844 0.999844 0.999842 0.999841 0.999839 0.999837 
0.999834 0.999832 0.999828 0.999825 0.999821 0.999816 0.999811 0.999805 0.999799 
0.999792 0.999784 0.999775 0.999766 0.999753 0.999743 0.999725 0.999714 0.999686 
0.999677 0.999632 0.999631 0.999548 0.999574 0.999408 0.999512 0.999163 0.999498 
0.998785 0.999727 1.0006 1.0019 1.003 1.00364 1.00405 0.999845 0.999844 
0.999843 0.999841 0.999839 0.999837 0.999835 0.999832 0.999829 0.999825 0.999821 
0.999817 0.999812 0.999806 0.999799 0.999792 0.999785 0.999775 0.999766 0.999753 
0.999743 0.999724 0.999713 0.999685 0.999676 0.99963 0.999628 0.999543 0.999568 
0.999395 0.999498 0.999117 0.999466 0.998626 0.999712 1.00077 1.00214 1.00332 
1.00395 1.00438 0.999845 0.999845 0.999843 0.999842 0.99984 0.999838 0.999835 
0.999833 0.999829 0.999826 0.999822 0.999817 0.999812 0.999806 0.9998 0.999792 
0.999785 0.999775 0.999766 0.999753 0.999743 0.999724 0.999713 0.999685 0.999675 
0.999628 0.999626 0.999539 0.999562 0.999382 0.999485 0.999071 0.999433 0.998443 
0.999695 1.00099 1.00241 1.00366 1.00428 1.00472 0.99984 0.99984 0.999838 
0.999837 0.999835 0.999833 0.99983 0.999827 0.999824 0.99982 0.999816 0.999812 
0.999807 0.999801 0.999794 0.999787 0.999779 0.999769 0.99976 0.999747 0.999737 
0.999718 0.999707 0.999679 0.999668 0.999621 0.999618 0.99953 0.999552 0.999367 
0.999468 0.999022 0.999395 0.998235 0.999674 1.00127 1.00271 1.00402 1.00462 
1.00507 0.999844 0.999843 0.999841 0.99984 0.999838 0.999836 0.999833 0.999831 
0.999827 0.999824 0.99982 0.999815 0.99981 0.999804 0.999798 0.99979 0.999782 
0.999773 0.999763 0.99975 0.99974 0.999721 0.999709 0.999681 0.99967 0.999623 
0.999618 0.999531 0.99955 0.999361 0.999459 0.998983 0.999359 0.997996 0.999649 
1.00161 1.00305 1.00441 1.00497 1.00544 0.999914 0.999912 0.999911 0.999909 
0.999907 0.999905 0.999903 0.9999 0.999897 0.999893 0.999889 0.999884 0.999879 
0.999873 0.999867 0.999859 0.999852 0.999842 0.999833 0.999819 0.999809 0.99979 
0.999778 0.99975 0.999738 0.999691 0.999685 0.999598 0.999614 0.999424 0.999516 
0.999015 0.999383 0.99776 0.999613 1.00204 1.00342 1.00482 1.00534 1.00581 
0.999791 0.999791 0.999789 0.999787 0.999785 0.999783 0.99978 0.999778 0.999774 
0.999771 0.999767 0.999762 0.999757 0.999751 0.999744 0.999737 0.999729 0.99972 
0.99971 0.999697 0.999686 0.999668 0.999656 0.999628 0.999617 0.99957 0.999564 
0.999478 0.999494 0.999304 0.999397 0.998886 0.999274 0.997455 0.999556 1.00254 
1.00382 1.00524 1.00571 1.00617 0.99902 0.999016 0.999013 0.999011 0.999009 
0.999006 0.999003 0.999 0.998997 0.998993 0.998989 0.998984 0.998979 0.998973 
0.998967 0.998959 0.998952 0.998942 0.998933 0.99892 0.99891 0.998892 0.99888 
0.998853 0.998842 0.998797 0.998792 0.998707 0.998726 0.998539 0.998641 0.998137 
0.998585 0.996653 0.99953 1.00314 1.00421 1.0056 1.00601 1.00646 1.00071 
1.00071 1.00071 1.0007 1.0007 1.0007 1.0007 1.0007 1.00069 1.00069 
1.00069 1.00068 1.00068 1.00067 1.00066 1.00066 1.00065 1.00064 1.00063 
1.00062 1.0006 1.00059 1.00057 1.00054 1.00053 1.00048 1.00047 1.00039 
1.00039 1.00021 1.00027 0.999754 1.00002 0.997256 0.999565 1.00371 1.00451 
1.00588 1.00623 1.00668 1.00277 1.00277 1.00277 1.00277 1.00277 1.00277 
1.00277 1.00277 1.00277 1.00276 1.00276 1.00276 1.00275 1.00274 1.00274 
1.00273 1.00272 1.00271 1.0027 1.00269 1.00267 1.00265 1.00264 1.00261 
1.00259 1.00254 1.00252 1.00244 1.00242 1.00224 1.00225 1.00173 1.00177 
0.998317 0.999602 1.00406 1.00471 1.00607 1.00638 1.00683 1.00492 1.00492 
1.00492 1.00493 1.00493 1.00493 1.00493 1.00493 1.00493 1.00492 1.00492 
1.00491 1.00491 1.0049 1.0049 1.00489 1.00488 1.00487 1.00486 1.00484 
1.00483 1.00481 1.00479 1.00476 1.00474 1.00469 1.00466 1.00457 1.00454 
1.00436 1.00432 1.0038 1.00362 0.999632 0.999671 1.00441 1.00492 1.00626 
1.00654 1.00698 1.00701 1.00701 1.00701 1.00702 1.00702 1.00702 1.00702 
1.00702 1.00702 1.00702 1.00702 1.00701 1.00701 1.007 1.00699 1.00699 
1.00698 1.00696 1.00695 1.00694 1.00692 1.0069 1.00688 1.00685 1.00682 
1.00677 1.00674 1.00665 1.0066 1.00642 1.00633 1.00583 1.00546 1.00118 
0.999776 1.00478 1.00514 1.00645 1.0067 1.00713 1.00907 1.00907 1.00908 
1.00909 1.00909 1.00909 1.0091 1.0091 1.0091 1.00909 1.00909 1.00909 
1.00908 1.00908 1.00907 1.00906 1.00905 1.00904 1.00903 1.00901 1.00899 
1.00897 1.00895 1.00892 1.00888 1.00883 1.00879 1.0087 1.00864 1.00847 
1.00833 1.00785 1.00733 1.00304 0.999919 1.00515 1.00537 1.00664 1.00685 
1.00728 1.01115 1.01115 1.01116 1.01117 1.01117 1.01118 1.01118 1.01118 
1.01118 1.01118 1.01118 1.01117 1.01117 1.01116 1.01116 1.01115 1.01114 
1.01112 1.01111 1.01109 1.01108 1.01105 1.01103 1.011 1.01096 1.01091 
1.01086 1.01077 1.01069 1.01052 1.01036 1.00991 1.00928 1.00535 1.00012 
1.00552 1.00559 1.00682 1.00701 1.00743 1.01326 1.01327 1.01328 1.01329 
1.0133 1.01331 1.01331 1.01331 1.01331 1.01331 1.01331 1.01331 1.0133 
1.01329 1.01329 1.01328 1.01327 1.01326 1.01324 1.01323 1.01321 1.01318 
1.01316 1.01312 1.01309 1.01304 1.01298 1.0129 1.01281 1.01265 1.01246 
1.01207 1.0114 1.00834 1.00048 1.00591 1.00584 1.00702 1.00717 1.00758 
1.01515 1.01517 1.01518 1.01519 1.0152 1.01521 1.01521 1.01521 1.01521 
1.01522 1.01521 1.01521 1.01521 1.0152 1.01519 1.01519 1.01518 1.01517 
1.01515 1.01514 1.01512 1.0151 1.01507 1.01504 1.01501 1.01496 1.0149 
1.01483 1.01473 1.0146 1.0144 1.01411 1.01344 1.01167 1.0012 1.00632 
1.00616 1.00726 1.00738 1.00778 1.01651 1.01652 1.01654 1.01655 1.01656 
1.01656 1.01657 1.01657 1.01658 1.01658 1.01658 1.01657 1.01657 1.01657 
1.01656 1.01655 1.01654 1.01653 1.01652 1.01651 1.01649 1.01647 1.01645 
1.01642 1.01639 1.01635 1.0163 1.01623 1.01614 1.01603 1.01583 1.01561 
1.01493 1.01445 1.00288 1.00692 1.00667 1.00763 1.00771 1.00809 1.01601 
1.01603 1.01604 1.01605 1.01605 1.01606 1.01607 1.01607 1.01607 1.01607 
1.01607 1.01607 1.01606 1.01606 1.01605 1.01604 1.01603 1.01602 1.01601 
1.01599 1.01597 1.01595 1.01593 1.01589 1.01586 1.01581 1.01575 1.01568 
1.01557 1.01544 1.01521 1.01494 1.01411 1.01341 1.00466 1.00761 1.00724 
1.00804 1.00806 1.00842 1.01603 1.01604 1.01605 1.01606 1.01607 1.01607 
1.01608 1.01608 1.01608 1.01608 1.01608 1.01608 1.01607 1.01607 1.01606 
1.01605 1.01604 1.01603 1.01601 1.016 1.01598 1.01595 1.01592 1.01589 
1.01585 1.0158 1.01573 1.01565 1.01554 1.01539 1.01513 1.01483 1.01391 
1.01315 1.00624 1.00828 1.00781 1.00844 1.00842 1.00875 1.01604 1.01605 
1.01606 1.01607 1.01607 1.01608 1.01608 1.01609 1.01609 1.01609 1.01609 
1.01608 1.01608 1.01607 1.01606 1.01606 1.01604 1.01603 1.01602 1.016 
1.01598 1.01595 1.01593 1.01589 1.01585 1.0158 1.01573 1.01564 1.01552 
1.01537 1.01509 1.01478 1.01384 1.01313 1.00755 1.00889 1.00835 1.00885 
1.00878 1.00908 1.01604 1.01604 1.01605 1.01606 1.01607 1.01607 1.01607 
1.01608 1.01608 1.01608 1.01608 1.01607 1.01607 1.01606 1.01605 1.01604 
1.01603 1.01602 1.016 1.01599 1.01596 1.01594 1.01591 1.01587 1.01583 
1.01577 1.0157 1.01561 1.01548 1.01532 1.01503 1.01471 1.01377 1.01311 
1.00862 1.00944 1.00887 1.00924 1.00913 1.00941 1.01604 1.01604 1.01605 
1.01606 1.01606 1.01607 1.01607 1.01607 1.01607 1.01607 1.01607 1.01607 
1.01606 1.01605 1.01605 1.01604 1.01602 1.01601 1.01599 1.01598 1.01595 
1.01593 1.01589 1.01586 1.01581 1.01575 1.01568 1.01558 1.01545 1.01528 
1.01498 1.01465 1.01374 1.0131 1.00949 1.00994 1.00935 1.00961 1.00948 
1.00973 1.01603 1.01604 1.01604 1.01605 1.01606 1.01606 1.01606 1.01607 
1.01607 1.01606 1.01606 1.01606 1.01605 1.01605 1.01604 1.01603 1.01602 
1.016 1.01598 1.01596 1.01594 1.01591 1.01588 1.01584 1.01579 1.01573 
1.01565 1.01555 1.01541 1.01524 1.01493 1.0146 1.01373 1.01312 1.0102 
1.01039 1.0098 1.00997 1.00981 1.01004 1.01603 1.01604 1.01604 1.01605 
1.01605 1.01606 1.01606 1.01606 1.01606 1.01606 1.01606 1.01605 1.01605 
1.01604 1.01603 1.01602 1.01601 1.01599 1.01597 1.01595 1.01593 1.0159 
1.01587 1.01582 1.01577 1.01571 1.01563 1.01553 1.01538 1.0152 1.01489 
1.01456 1.01374 1.01316 1.01079 1.0108 1.01021 1.01031 1.01014 1.01035 
1.01603 1.01603 1.01604 1.01604 1.01605 1.01605 1.01605 1.01605 1.01605 
1.01605 1.01605 1.01604 1.01604 1.01603 1.01602 1.01601 1.016 1.01598 
1.01596 1.01594 1.01592 1.01589 1.01585 1.01581 1.01575 1.01569 1.0156 
1.0155 1.01535 1.01517 1.01486 1.01453 1.01376 1.01321 1.01127 1.01116 
1.0106 1.01064 1.01045 1.01064 1.01603 1.01603 1.01603 1.01604 1.01604 
1.01604 1.01605 1.01605 1.01605 1.01604 1.01604 1.01604 1.01603 1.01602 
1.01601 1.016 1.01599 1.01597 1.01595 1.01593 1.0159 1.01587 1.01584 
1.01579 1.01574 1.01567 1.01558 1.01547 1.01532 1.01514 1.01483 1.01451 
1.0138 1.01328 1.01168 1.01149 1.01095 1.01095 1.01075 1.01092 1.01602 
1.01603 1.01603 1.01603 1.01603 1.01604 1.01604 1.01604 1.01604 1.01604 
1.01603 1.01603 1.01602 1.01601 1.016 1.01599 1.01598 1.01596 1.01594 
1.01592 1.01589 1.01586 1.01582 1.01577 1.01572 1.01565 1.01556 1.01545 
1.0153 1.01511 1.01481 1.01449 1.01384 1.01335 1.01203 1.01178 1.01128 
1.01124 1.01104 1.01119 1.01602 1.01602 1.01602 1.01603 1.01603 1.01603 
1.01603 1.01603 1.01603 1.01603 1.01603 1.01602 1.01601 1.016 1.01599 
1.01598 1.01597 1.01595 1.01593 1.01591 1.01588 1.01585 1.01581 1.01576 
1.0157 1.01563 1.01554 1.01543 1.01527 1.01509 1.0148 1.01448 1.01388 
1.01342 1.01233 1.01205 1.01158 1.01152 1.01131 1.01145 1.01601 1.01602 
1.01602 1.01602 1.01602 1.01603 1.01603 1.01603 1.01602 1.01602 1.01602 
1.01601 1.01601 1.016 1.01599 1.01597 1.01596 1.01594 1.01592 1.01589 
1.01587 1.01583 1.01579 1.01574 1.01568 1.01561 1.01552 1.0154 1.01525 
1.01507 1.01478 1.01448 1.01393 1.0135 1.01258 1.01229 1.01186 1.01178 
1.01157 1.0117 1.01601 1.01601 1.01601 1.01602 1.01602 1.01602 1.01602 
1.01602 1.01602 1.01601 1.01601 1.016 1.016 1.01599 1.01598 1.01596 
1.01595 1.01593 1.01591 1.01588 1.01585 1.01582 1.01578 1.01573 1.01566 
1.01559 1.0155 1.01538 1.01523 1.01505 1.01477 1.01448 1.01399 1.01358 
1.01281 1.01251 1.01212 1.01202 1.01182 1.01193 1.016 1.01601 1.01601 
1.01601 1.01601 1.01601 1.01601 1.01601 1.01601 1.01601 1.016 1.016 
1.01599 1.01598 1.01597 1.01595 1.01594 1.01592 1.0159 1.01587 1.01584 
1.0158 1.01576 1.01571 1.01565 1.01557 1.01548 1.01536 1.01521 1.01503 
1.01477 1.01449 1.01404 1.01366 1.013 1.01272 1.01235 1.01225 1.01205 
1.01215 1.016 1.016 1.016 1.01601 1.01601 1.01601 1.01601 1.01601 
1.016 1.016 1.01599 1.01599 1.01598 1.01597 1.01596 1.01594 1.01593 
1.01591 1.01588 1.01586 1.01583 1.01579 1.01575 1.01569 1.01563 1.01556 
1.01546 1.01535 1.0152 1.01502 1.01477 1.0145 1.01409 1.01374 1.01318 
1.0129 1.01257 1.01246 1.01227 1.01237 1.01599 1.016 1.016 1.016 
1.016 1.016 1.016 1.016 1.016 1.01599 1.01599 1.01598 1.01597 
1.01596 1.01595 1.01593 1.01592 1.0159 1.01587 1.01585 1.01581 1.01578 
1.01573 1.01568 1.01561 1.01554 1.01544 1.01533 1.01518 1.01501 1.01477 
1.01452 1.01415 1.01382 1.01334 1.01307 1.01277 1.01266 1.01248 1.01256 
1.01599 1.01599 1.01599 1.01599 1.01599 1.01599 1.01599 1.01599 1.01599 
1.01598 1.01598 1.01597 1.01596 1.01595 1.01594 1.01592 1.01591 1.01588 
1.01586 1.01583 1.0158 1.01576 1.01572 1.01566 1.0156 1.01552 1.01543 
1.01532 1.01517 1.015 1.01478 1.01454 1.0142 1.0139 1.01348 1.01323 
1.01295 1.01284 1.01268 1.01275 1.01598 1.01599 1.01599 1.01599 1.01599 
1.01599 1.01598 1.01598 1.01598 1.01597 1.01597 1.01596 1.01595 1.01594 
1.01593 1.01591 1.01589 1.01587 1.01585 1.01582 1.01579 1.01575 1.0157 
1.01565 1.01558 1.01551 1.01541 1.0153 1.01516 1.015 1.01479 1.01456 
1.01425 1.01398 1.01361 1.01338 1.01312 1.01302 1.01286 1.01293 1.01598 
1.01598 1.01598 1.01598 1.01598 1.01598 1.01598 1.01598 1.01597 1.01597 
1.01596 1.01595 1.01594 1.01593 1.01592 1.0159 1.01588 1.01586 1.01584 
1.01581 1.01577 1.01574 1.01569 1.01563 1.01557 1.01549 1.0154 1.01529 
1.01515 1.015 1.0148 1.01458 1.0143 1.01405 1.01373 1.01351 1.01328 
1.01318 1.01304 1.0131 1.01597 1.01597 1.01597 1.01597 1.01597 1.01597 
1.01597 1.01597 1.01596 1.01596 1.01595 1.01594 1.01593 1.01592 1.01591 
1.01589 1.01587 1.01585 1.01583 1.0158 1.01576 1.01572 1.01568 1.01562 
1.01556 1.01548 1.01539 1.01528 1.01515 1.015 1.01481 1.01461 1.01435 
1.01412 1.01384 1.01364 1.01343 1.01333 1.0132 1.01325 1.01597 1.01597 
1.01597 1.01597 1.01597 1.01596 1.01596 1.01596 1.01595 1.01595 1.01594 
1.01593 1.01592 1.01591 1.0159 1.01588 1.01586 1.01584 1.01581 1.01578 
1.01575 1.01571 1.01566 1.01561 1.01554 1.01547 1.01538 1.01527 1.01515 
1.015 1.01482 1.01463 1.0144 1.01419 1.01394 1.01376 1.01356 1.01348 
1.01335 1.0134 1.01596 1.01596 1.01596 1.01596 1.01596 1.01596 1.01595 
1.01595 1.01595 1.01594 1.01593 1.01592 1.01591 1.0159 1.01589 1.01587 
1.01585 1.01583 1.0158 1.01577 1.01574 1.0157 1.01565 1.01559 1.01553 
1.01546 1.01537 1.01527 1.01514 1.01501 1.01484 1.01466 1.01445 1.01426 
1.01403 1.01386 1.01369 1.01361 1.01349 1.01354 1.01595 1.01595 1.01595 
1.01595 1.01595 1.01595 1.01595 1.01594 1.01594 1.01593 1.01592 1.01592 
1.0159 1.01589 1.01588 1.01586 1.01584 1.01582 1.01579 1.01576 1.01572 
1.01568 1.01564 1.01558 1.01552 1.01545 1.01536 1.01526 1.01514 1.01501 
1.01486 1.01469 1.0145 1.01432 1.01412 1.01397 1.01381 1.01373 1.01363 
1.01367 1.01595 1.01595 1.01595 1.01595 1.01594 1.01594 1.01594 1.01593 
1.01593 1.01592 1.01592 1.01591 1.01589 1.01588 1.01587 1.01585 1.01583 
1.01581 1.01578 1.01575 1.01571 1.01567 1.01563 1.01557 1.01551 1.01544 
1.01535 1.01526 1.01514 1.01502 1.01487 1.01472 1.01455 1.01438 1.0142 
1.01406 1.01392 1.01385 1.01375 1.01379 1.01594 1.01594 1.01594 1.01594 
1.01594 1.01593 1.01593 1.01593 1.01592 1.01591 1.01591 1.0159 1.01588 
1.01587 1.01586 1.01584 1.01582 1.01579 1.01577 1.01574 1.0157 1.01566 
1.01561 1.01556 1.0155 1.01543 1.01535 1.01525 1.01515 1.01503 1.01489 
1.01475 1.01459 1.01444 1.01428 1.01415 1.01402 1.01396 1.01387 1.0139 
1.01593 1.01593 1.01593 1.01593 1.01593 1.01593 1.01592 1.01592 1.01591 
1.0159 1.0159 1.01589 1.01587 1.01586 1.01585 1.01583 1.01581 1.01578 
1.01576 1.01573 1.01569 1.01565 1.0156 1.01555 1.01549 1.01542 1.01534 
1.01525 1.01515 1.01504 1.01491 1.01478 1.01463 1.0145 1.01435 1.01423 
1.01412 1.01406 1.01398 1.01401 1.01592 1.01593 1.01592 1.01592 1.01592 
1.01592 1.01591 1.01591 1.0159 1.0159 1.01589 1.01588 1.01586 1.01585 
1.01584 1.01582 1.0158 1.01577 1.01575 1.01571 1.01568 1.01564 1.01559 
1.01554 1.01548 1.01542 1.01534 1.01525 1.01516 1.01505 1.01493 1.01481 
1.01468 1.01455 1.01442 1.01431 1.01421 1.01415 1.01408 1.0141 1.01592 
1.01592 1.01592 1.01592 1.01591 1.01591 1.01591 1.0159 1.01589 1.01589 
1.01588 1.01587 1.01586 1.01584 1.01582 1.01581 1.01579 1.01576 1.01573 
1.0157 1.01567 1.01563 1.01558 1.01553 1.01548 1.01541 1.01534 1.01525 
1.01516 1.01506 1.01495 1.01484 1.01472 1.0146 1.01448 1.01439 1.01429 
1.01424 1.01417 1.0142 1.01591 1.01591 1.01591 1.01591 1.0159 1.0159 
1.0159 1.01589 1.01588 1.01588 1.01587 1.01586 1.01585 1.01583 1.01581 
1.0158 1.01577 1.01575 1.01572 1.01569 1.01566 1.01562 1.01558 1.01553 
1.01547 1.01541 1.01534 1.01526 1.01517 1.01508 1.01497 1.01487 1.01476 
1.01465 1.01454 1.01446 1.01437 1.01433 1.01426 1.01428 1.0159 1.0159 
1.0159 1.0159 1.0159 1.01589 1.01589 1.01588 1.01588 1.01587 1.01586 
1.01585 1.01584 1.01582 1.0158 1.01579 1.01576 1.01574 1.01571 1.01568 
1.01565 1.01561 1.01557 1.01552 1.01546 1.0154 1.01533 1.01526 1.01518 
1.01509 1.01499 1.0149 1.01479 1.0147 1.0146 1.01452 1.01444 1.0144 
1.01435 1.01437 1.01589 1.01589 1.01589 1.01589 1.01589 1.01588 1.01588 
1.01587 1.01587 1.01586 1.01585 1.01584 1.01583 1.01581 1.01579 1.01578 
1.01575 1.01573 1.0157 1.01567 1.01564 1.0156 1.01556 1.01551 1.01546 
1.0154 1.01534 1.01526 1.01519 1.0151 1.01502 1.01493 1.01483 1.01474 
1.01466 1.01458 1.01451 1.01448 1.01443 1.01444 1.01588 1.01589 1.01588 
1.01588 1.01588 1.01588 1.01587 1.01586 1.01586 1.01585 1.01584 1.01583 
1.01582 1.0158 1.01578 1.01577 1.01574 1.01572 1.01569 1.01566 1.01563 
1.01559 1.01555 1.01551 1.01546 1.0154 1.01534 1.01527 1.0152 1.01512 
1.01504 1.01495 1.01487 1.01479 1.01471 1.01464 1.01458 1.01455 1.0145 
1.01451 1.01588 1.01588 1.01587 1.01587 1.01587 1.01587 1.01586 1.01586 
1.01585 1.01584 1.01583 1.01582 1.01581 1.01579 1.01577 1.01576 1.01574 
1.01571 1.01569 1.01566 1.01562 1.01559 1.01555 1.0155 1.01545 1.0154 
1.01534 1.01527 1.01521 1.01513 1.01506 1.01498 1.0149 1.01483 1.01476 
1.0147 1.01464 1.01461 1.01457 1.01458 1.01587 1.01587 1.01587 1.01586 
1.01586 1.01586 1.01585 1.01585 1.01584 1.01583 1.01582 1.01581 1.0158 
1.01578 1.01577 1.01575 1.01573 1.0157 1.01568 1.01565 1.01562 1.01558 
1.01554 1.0155 1.01545 1.0154 1.01534 1.01528 1.01522 1.01515 1.01508 
1.01501 1.01494 1.01487 1.0148 1.01475 1.0147 1.01467 1.01463 1.01464 
1.01586 1.01586 1.01586 1.01586 1.01585 1.01585 1.01584 1.01584 1.01583 
1.01582 1.01581 1.0158 1.01579 1.01577 1.01576 1.01574 1.01572 1.01569 
1.01567 1.01564 1.01561 1.01557 1.01554 1.01549 1.01545 1.0154 1.01534 
1.01529 1.01523 1.01516 1.0151 1.01503 1.01497 1.01491 1.01485 1.0148 
1.01475 1.01473 1.01469 1.0147 1.01585 1.01585 1.01585 1.01585 1.01584 
1.01584 1.01583 1.01583 1.01582 1.01581 1.0158 1.01579 1.01578 1.01576 
1.01575 1.01573 1.01571 1.01568 1.01566 1.01563 1.0156 1.01557 1.01553 
1.01549 1.01545 1.0154 1.01535 1.0153 1.01524 1.01518 1.01512 1.01506 
1.015 1.01494 1.01489 1.01485 1.0148 1.01478 1.01475 1.01476 1.01584 
1.01584 1.01584 1.01584 1.01583 1.01583 1.01582 1.01582 1.01581 1.0158 
1.01579 1.01578 1.01577 1.01575 1.01574 1.01572 1.0157 1.01568 1.01565 
1.01562 1.01559 1.01556 1.01553 1.01549 1.01545 1.0154 1.01535 1.0153 
1.01525 1.0152 1.01514 1.01508 1.01503 1.01498 1.01493 1.01489 1.01485 
1.01483 1.0148 1.01481 1.01583 1.01583 1.01583 1.01583 1.01583 1.01582 
1.01582 1.01581 1.0158 1.01579 1.01578 1.01577 1.01576 1.01574 1.01573 
1.01571 1.01569 1.01567 1.01564 1.01562 1.01559 1.01556 1.01552 1.01549 
1.01545 1.0154 1.01536 1.01531 1.01526 1.01521 1.01516 1.01511 1.01506 
1.01501 1.01497 1.01493 1.01489 1.01488 1.01485 1.01486 1.01582 1.01583 
1.01582 1.01582 1.01582 1.01581 1.01581 1.0158 1.01579 1.01578 1.01577 
1.01576 1.01575 1.01574 1.01572 1.0157 1.01568 1.01566 1.01564 1.01561 
1.01558 1.01555 1.01552 1.01549 1.01545 1.01541 1.01536 1.01532 1.01527 
1.01523 1.01518 1.01513 1.01509 1.01504 1.015 1.01497 1.01494 1.01492 
1.0149 1.01491 1.01581 1.01582 1.01581 1.01581 1.01581 1.0158 1.0158 
1.01579 1.01578 1.01578 1.01577 1.01575 1.01574 1.01573 1.01571 1.01569 
1.01568 1.01565 1.01563 1.01561 1.01558 1.01555 1.01552 1.01548 1.01545 
1.01541 1.01537 1.01533 1.01529 1.01524 1.0152 1.01515 1.01511 1.01507 
1.01504 1.01501 1.01498 1.01496 1.01494 1.01495 1.01581 1.01581 1.0158 
1.0158 1.0158 1.01579 1.01579 1.01578 1.01578 1.01577 1.01576 1.01575 
1.01573 1.01572 1.0157 1.01569 1.01567 1.01565 1.01563 1.0156 1.01557 
1.01555 1.01552 1.01548 1.01545 1.01541 1.01538 1.01534 1.0153 1.01526 
1.01522 1.01518 1.01514 1.0151 1.01507 1.01504 1.01502 1.015 1.01498 
1.01499 1.0158 1.0158 1.0158 1.01579 1.01579 1.01579 1.01578 1.01577 
1.01577 1.01576 1.01575 1.01574 1.01572 1.01571 1.0157 1.01568 1.01566 
1.01564 1.01562 1.0156 1.01557 1.01554 1.01552 1.01548 1.01545 1.01542 
1.01538 1.01535 1.01531 1.01527 1.01523 1.0152 1.01516 1.01513 1.0151 
1.01508 1.01505 1.01504 1.01502 1.01503 1.01579 1.01579 1.01579 1.01579 
1.01578 1.01578 1.01577 1.01577 1.01576 1.01575 1.01574 1.01573 1.01572 
1.0157 1.01569 1.01567 1.01565 1.01564 1.01561 1.01559 1.01557 1.01554 
1.01551 1.01549 1.01545 1.01542 1.01539 1.01536 1.01532 1.01529 1.01525 
1.01522 1.01519 1.01516 1.01513 1.01511 1.01508 1.01507 1.01506 1.01506 
1.01578 1.01578 1.01578 1.01578 1.01577 1.01577 1.01576 1.01576 1.01575 
1.01574 1.01573 1.01572 1.01571 1.0157 1.01568 1.01567 1.01565 1.01563 
1.01561 1.01559 1.01556 1.01554 1.01551 1.01549 1.01546 1.01543 1.0154 
1.01536 1.01533 1.0153 1.01527 1.01524 1.01521 1.01518 1.01516 1.01514 
1.01512 1.01511 1.01509 1.0151 1.01577 1.01577 1.01577 1.01577 1.01576 
1.01576 1.01575 1.01575 1.01574 1.01573 1.01572 1.01571 1.0157 1.01569 
1.01567 1.01566 1.01564 1.01562 1.01561 1.01558 1.01556 1.01554 1.01551 
1.01549 1.01546 1.01543 1.0154 1.01537 1.01534 1.01531 1.01529 1.01526 
1.01523 1.01521 1.01518 1.01517 1.01515 1.01514 1.01512 1.01513 1.01576 
1.01576 1.01576 1.01576 1.01576 1.01575 1.01575 1.01574 1.01573 1.01572 
1.01572 1.01571 1.01569 1.01568 1.01567 1.01565 1.01564 1.01562 1.0156 
1.01558 1.01556 1.01554 1.01551 1.01549 1.01546 1.01544 1.01541 1.01538 
1.01536 1.01533 1.0153 1.01528 1.01525 1.01523 1.01521 1.01519 1.01518 
1.01517 1.01516 1.01516 1.01575 1.01576 1.01575 1.01575 1.01575 1.01574 
1.01574 1.01573 1.01572 1.01572 1.01571 1.0157 1.01569 1.01568 1.01566 
1.01565 1.01563 1.01562 1.0156 1.01558 1.01556 1.01554 1.01552 1.01549 
1.01547 1.01544 1.01542 1.01539 1.01537 1.01534 1.01532 1.01529 1.01527 
1.01525 1.01523 1.01522 1.0152 1.0152 1.01518 1.01519 1.01575 1.01575 
1.01574 1.01574 1.01574 1.01574 1.01573 1.01572 1.01572 1.01571 1.0157 
1.01569 1.01568 1.01567 1.01566 1.01564 1.01563 1.01561 1.01559 1.01558 
1.01556 1.01554 1.01552 1.01549 1.01547 1.01545 1.01543 1.0154 1.01538 
1.01536 1.01533 1.01531 1.01529 1.01527 1.01525 1.01524 1.01523 1.01522 
1.01521 1.01522 1.01574 1.01574 1.01574 1.01573 1.01573 1.01573 1.01572 
1.01572 1.01571 1.0157 1.01569 1.01568 1.01567 1.01566 1.01565 1.01564 
1.01562 1.01561 1.01559 1.01557 1.01556 1.01554 1.01552 1.0155 1.01548 
1.01546 1.01543 1.01541 1.01539 1.01537 1.01535 1.01533 1.01531 1.01529 
1.01528 1.01526 1.01525 1.01525 1.01524 1.01524 1.01573 1.01573 1.01573 
1.01573 1.01572 1.01572 1.01571 1.01571 1.0157 1.0157 1.01569 1.01568 
1.01567 1.01566 1.01565 1.01563 1.01562 1.0156 1.01559 1.01557 1.01556 
1.01554 1.01552 1.0155 1.01548 1.01546 1.01544 1.01542 1.0154 1.01538 
1.01536 1.01534 1.01533 1.01531 1.0153 1.01529 1.01527 1.01527 1.01526 
1.01526 1.01572 1.01572 1.01572 1.01572 1.01572 1.01571 1.01571 1.0157 
1.0157 1.01569 1.01568 1.01567 1.01566 1.01565 1.01564 1.01563 1.01562 
1.0156 1.01559 1.01557 1.01556 1.01554 1.01552 1.0155 1.01549 1.01547 
1.01545 1.01543 1.01541 1.01539 1.01538 1.01536 1.01534 1.01533 1.01532 
1.01531 1.0153 1.01529 1.01528 1.01529 1.01571 1.01572 1.01571 1.01571 
1.01571 1.0157 1.0157 1.0157 1.01569 1.01568 1.01567 1.01567 1.01566 
1.01565 1.01564 1.01562 1.01561 1.0156 1.01559 1.01557 1.01556 1.01554 
1.01552 1.01551 1.01549 1.01547 1.01546 1.01544 1.01542 1.0154 1.01539 
1.01537 1.01536 1.01535 1.01533 1.01533 1.01532 1.01531 1.01531 1.01531 
1.01571 1.01571 1.01571 1.0157 1.0157 1.0157 1.01569 1.01569 1.01568 
1.01568 1.01567 1.01566 1.01565 1.01564 1.01563 1.01562 1.01561 1.0156 
1.01558 1.01557 1.01556 1.01554 1.01553 1.01551 1.01549 1.01548 1.01546 
1.01545 1.01543 1.01542 1.0154 1.01539 1.01537 1.01536 1.01535 1.01534 
1.01534 1.01533 1.01533 1.01533 1.0157 1.0157 1.0157 1.0157 1.01569 
1.01569 1.01569 1.01568 1.01568 1.01567 1.01566 1.01566 1.01565 1.01564 
1.01563 1.01562 1.01561 1.0156 1.01558 1.01557 1.01556 1.01554 1.01553 
1.01551 1.0155 1.01549 1.01547 1.01546 1.01544 1.01543 1.01541 1.0154 
1.01539 1.01538 1.01537 1.01536 1.01535 1.01535 1.01535 1.01535 1.01569 
1.01569 1.01569 1.01569 1.01569 1.01569 1.01568 1.01568 1.01567 1.01567 
1.01566 1.01565 1.01564 1.01563 1.01563 1.01562 1.01561 1.01559 1.01558 
1.01557 1.01556 1.01555 1.01553 1.01552 1.0155 1.01549 1.01548 1.01546 
1.01545 1.01544 1.01543 1.01541 1.0154 1.01539 1.01539 1.01538 1.01537 
1.01537 1.01536 1.01537 1.01569 1.01569 1.01569 1.01569 1.01568 1.01568 
1.01568 1.01567 1.01567 1.01566 1.01565 1.01565 1.01564 1.01563 1.01562 
1.01561 1.0156 1.01559 1.01558 1.01557 1.01556 1.01555 1.01553 1.01552 
1.01551 1.0155 1.01548 1.01547 1.01546 1.01545 1.01544 1.01543 1.01542 
1.01541 1.0154 1.01539 1.01539 1.01539 1.01538 1.01538 1.01568 1.01568 
1.01568 1.01568 1.01568 1.01567 1.01567 1.01567 1.01566 1.01566 1.01565 
1.01564 1.01564 1.01563 1.01562 1.01561 1.0156 1.01559 1.01558 1.01557 
1.01556 1.01555 1.01554 1.01553 1.01551 1.0155 1.01549 1.01548 1.01547 
1.01546 1.01545 1.01544 1.01543 1.01542 1.01541 1.01541 1.0154 1.0154 
1.0154 1.0154 1.01568 1.01568 1.01567 1.01567 1.01567 1.01567 1.01566 
1.01566 1.01566 1.01565 1.01565 1.01564 1.01563 1.01563 1.01562 1.01561 
1.0156 1.01559 1.01558 1.01557 1.01556 1.01555 1.01554 1.01553 1.01552 
1.01551 1.0155 1.01549 1.01548 1.01547 1.01546 1.01545 1.01544 1.01544 
1.01543 1.01542 1.01542 1.01542 1.01541 1.01541 1.01567 1.01567 1.01567 
1.01567 1.01567 1.01566 1.01566 1.01566 1.01565 1.01565 1.01564 1.01564 
1.01563 1.01562 1.01562 1.01561 1.0156 1.01559 1.01558 1.01557 1.01556 
1.01555 1.01554 1.01553 1.01552 1.01552 1.01551 1.0155 1.01549 1.01548 
1.01547 1.01546 1.01545 1.01545 1.01544 1.01544 1.01543 1.01543 1.01543 
1.01543 1.01567 1.01567 1.01566 1.01566 1.01566 1.01566 1.01566 1.01565 
1.01565 1.01564 1.01564 1.01563 1.01563 1.01562 1.01561 1.01561 1.0156 
1.01559 1.01558 1.01557 1.01557 1.01556 1.01555 1.01554 1.01553 1.01552 
1.01551 1.0155 1.01549 1.01549 1.01548 1.01547 1.01547 1.01546 1.01545 
1.01545 1.01545 1.01544 1.01544 1.01544 1.01566 1.01566 1.01566 1.01566 
1.01566 1.01565 1.01565 1.01565 1.01564 1.01564 1.01564 1.01563 1.01562 
1.01562 1.01561 1.01561 1.0156 1.01559 1.01558 1.01558 1.01557 1.01556 
1.01555 1.01554 1.01553 1.01553 1.01552 1.01551 1.0155 1.0155 1.01549 
1.01548 1.01548 1.01547 1.01547 1.01546 1.01546 1.01546 1.01545 1.01546 
1.01566 1.01566 1.01566 1.01565 1.01565 1.01565 1.01565 1.01564 1.01564 
1.01564 1.01563 1.01563 1.01562 1.01562 1.01561 1.01561 1.0156 1.01559 
1.01558 1.01558 1.01557 1.01556 1.01556 1.01555 1.01554 1.01553 1.01553 
1.01552 1.01551 1.0155 1.0155 1.01549 1.01549 1.01548 1.01548 1.01547 
1.01547 1.01547 1.01547 1.01547 1.01565 1.01565 1.01565 1.01565 1.01565 
1.01565 1.01564 1.01564 1.01564 1.01563 1.01563 1.01563 1.01562 1.01562 
1.01561 1.0156 1.0156 1.01559 1.01559 1.01558 1.01557 1.01557 1.01556 
1.01555 1.01555 1.01554 1.01553 1.01552 1.01552 1.01551 1.01551 1.0155 
1.0155 1.01549 1.01549 1.01549 1.01548 1.01548 1.01548 1.01548 1.01565 
1.01565 1.01565 1.01565 1.01565 1.01564 1.01564 1.01564 1.01564 1.01563 
1.01563 1.01562 1.01562 1.01562 1.01561 1.0156 1.0156 1.01559 1.01559 
1.01558 1.01558 1.01557 1.01556 1.01556 1.01555 1.01554 1.01554 1.01553 
1.01553 1.01552 1.01552 1.01551 1.01551 1.0155 1.0155 1.0155 1.01549 
1.01549 1.01549 1.01549 1.01565 1.01565 1.01565 1.01565 1.01564 1.01564 
1.01564 1.01564 1.01563 1.01563 1.01563 1.01562 1.01562 1.01561 1.01561 
1.01561 1.0156 1.01559 1.01559 1.01558 1.01558 1.01557 1.01557 1.01556 
1.01555 1.01555 1.01554 1.01554 1.01553 1.01553 1.01552 1.01552 1.01552 
1.01551 1.01551 1.01551 1.0155 1.0155 1.0155 1.0155 1.01564 1.01564 
1.01564 1.01564 1.01564 1.01564 1.01564 1.01563 1.01563 1.01563 1.01563 
1.01562 1.01562 1.01561 1.01561 1.01561 1.0156 1.0156 1.01559 1.01559 
1.01558 1.01558 1.01557 1.01557 1.01556 1.01555 1.01555 1.01554 1.01554 
1.01554 1.01553 1.01553 1.01552 1.01552 1.01552 1.01552 1.01551 1.01551 
1.01551 1.01551 1.01564 1.01564 1.01564 1.01564 1.01564 1.01564 1.01564 
1.01563 1.01563 1.01563 1.01562 1.01562 1.01562 1.01561 1.01561 1.01561 
1.0156 1.0156 1.01559 1.01559 1.01558 1.01558 1.01557 1.01557 1.01556 
1.01556 1.01556 1.01555 1.01555 1.01554 1.01554 1.01554 1.01553 1.01553 
1.01553 1.01553 1.01552 1.01552 1.01552 1.01552 1.01564 1.01564 1.01564 
1.01564 1.01564 1.01564 1.01563 1.01563 1.01563 1.01563 1.01562 1.01562 
1.01562 1.01561 1.01561 1.01561 1.0156 1.0156 1.0156 1.01559 1.01559 
1.01558 1.01558 1.01557 1.01557 1.01557 1.01556 1.01556 1.01555 1.01555 
1.01555 1.01554 1.01554 1.01554 1.01554 1.01553 1.01553 1.01553 1.01553 
1.01553 1.01564 1.01564 1.01564 1.01564 1.01564 1.01563 1.01563 1.01563 
1.01563 1.01563 1.01562 1.01562 1.01562 1.01562 1.01561 1.01561 1.01561 
1.0156 1.0156 1.01559 1.01559 1.01559 1.01558 1.01558 1.01557 1.01557 
1.01557 1.01556 1.01556 1.01556 1.01555 1.01555 1.01555 1.01555 1.01554 
1.01554 1.01554 1.01554 1.01554 1.01554 1.01564 1.01564 1.01564 1.01564 
1.01564 1.01563 1.01563 1.01563 1.01563 1.01563 1.01562 1.01562 1.01562 
1.01562 1.01561 1.01561 1.01561 1.0156 1.0156 1.0156 1.01559 1.01559 
1.01559 1.01558 1.01558 1.01558 1.01557 1.01557 1.01557 1.01556 1.01556 
1.01556 1.01556 1.01555 1.01555 1.01555 1.01555 1.01555 1.01555 1.01555 
1.01564 1.01564 1.01564 1.01564 1.01563 1.01563 1.01563 1.01563 1.01563 
1.01563 1.01562 1.01562 1.01562 1.01562 1.01561 1.01561 1.01561 1.01561 
1.0156 1.0156 1.0156 1.01559 1.01559 1.01559 1.01558 1.01558 1.01558 
1.01558 1.01557 1.01557 1.01557 1.01557 1.01556 1.01556 1.01556 1.01556 
1.01556 1.01556 1.01556 1.01556 1.01564 1.01564 1.01564 1.01564 1.01563 
1.01563 1.01563 1.01563 1.01563 1.01563 1.01563 1.01562 1.01562 1.01562 
1.01562 1.01561 1.01561 1.01561 1.01561 1.0156 1.0156 1.0156 1.01559 
1.01559 1.01559 1.01559 1.01558 1.01558 1.01558 1.01558 1.01557 1.01557 
1.01557 1.01557 1.01557 1.01557 1.01556 1.01556 1.01556 1.01556 1.01564 
1.01564 1.01564 1.01564 1.01563 1.01563 1.01563 1.01563 1.01563 1.01563 
1.01563 1.01562 1.01562 1.01562 1.01562 1.01562 1.01561 1.01561 1.01561 
1.01561 1.0156 1.0156 1.0156 1.0156 1.01559 1.01559 1.01559 1.01559 
1.01558 1.01558 1.01558 1.01558 1.01558 1.01558 1.01557 1.01557 1.01557 
1.01557 1.01557 1.01557 1.01564 1.01564 1.01564 1.01564 1.01564 1.01563 
1.01563 1.01563 1.01563 1.01563 1.01563 1.01563 1.01562 1.01562 1.01562 
1.01562 1.01562 1.01561 1.01561 1.01561 1.01561 1.01561 1.0156 1.0156 
1.0156 1.0156 1.01559 1.01559 1.01559 1.01559 1.01559 1.01559 1.01558 
1.01558 1.01558 1.01558 1.01558 1.01558 1.01558 1.01558 1.01564 1.01564 
1.01564 1.01564 1.01564 1.01564 1.01563 1.01563 1.01563 1.01563 1.01563 
1.01563 1.01563 1.01562 1.01562 1.01562 1.01562 1.01562 1.01562 1.01561 
1.01561 1.01561 1.01561 1.01561 1.0156 1.0156 1.0156 1.0156 1.0156 
1.01559 1.01559 1.01559 1.01559 1.01559 1.01559 1.01559 1.01559 1.01559 
1.01559 1.01559 1.01564 1.01564 1.01564 1.01564 1.01564 1.01564 1.01564 
1.01564 1.01563 1.01563 1.01563 1.01563 1.01563 1.01563 1.01563 1.01562 
1.01562 1.01562 1.01562 1.01562 1.01562 1.01561 1.01561 1.01561 1.01561 
1.01561 1.0156 1.0156 1.0156 1.0156 1.0156 1.0156 1.0156 1.0156 
1.01559 1.01559 1.01559 1.01559 1.01559 1.01559 1.01564 1.01564 1.01564 
1.01564 1.01564 1.01564 1.01564 1.01564 1.01564 1.01563 1.01563 1.01563 
1.01563 1.01563 1.01563 1.01563 1.01563 1.01562 1.01562 1.01562 1.01562 
1.01562 1.01562 1.01561 1.01561 1.01561 1.01561 1.01561 1.01561 1.01561 
1.0156 1.0156 1.0156 1.0156 1.0156 1.0156 1.0156 1.0156 1.0156 
1.0156 1.01564 1.01564 1.01564 1.01564 1.01564 1.01564 1.01564 1.01564 
1.01564 1.01564 1.01564 1.01564 1.01563 1.01563 1.01563 1.01563 1.01563 
1.01563 1.01563 1.01562 1.01562 1.01562 1.01562 1.01562 1.01562 1.01562 
1.01562 1.01561 1.01561 1.01561 1.01561 1.01561 1.01561 1.01561 1.01561 
1.01561 1.01561 1.01561 1.01561 1.01561 1.01564 1.01564 1.01564 1.01564 
1.01564 1.01564 1.01564 1.01564 1.01564 1.01564 1.01564 1.01564 1.01564 
1.01564 1.01563 1.01563 1.01563 1.01563 1.01563 1.01563 1.01563 1.01563 
1.01563 1.01562 1.01562 1.01562 1.01562 1.01562 1.01562 1.01562 1.01562 
1.01562 1.01561 1.01561 1.01561 1.01561 1.01561 1.01561 1.01561 1.01561 
1.01565 1.01565 1.01565 1.01565 1.01565 1.01565 1.01564 1.01564 1.01564 
1.01564 1.01564 1.01564 1.01564 1.01564 1.01564 1.01564 1.01564 1.01564 
1.01563 1.01563 1.01563 1.01563 1.01563 1.01563 1.01563 1.01563 1.01563 
1.01562 1.01562 1.01562 1.01562 1.01562 1.01562 1.01562 1.01562 1.01562 
1.01562 1.01562 1.01562 1.01562 1.01565 1.01565 1.01565 1.01565 1.01565 
1.01565 1.01565 1.01565 1.01565 1.01565 1.01565 1.01564 1.01564 1.01564 
1.01564 1.01564 1.01564 1.01564 1.01564 1.01564 1.01564 1.01564 1.01563 
1.01563 1.01563 1.01563 1.01563 1.01563 1.01563 1.01563 1.01563 1.01563 
1.01563 1.01563 1.01563 1.01563 1.01562 1.01562 1.01562 1.01562 1.01565 
1.01565 1.01565 1.01565 1.01565 1.01565 1.01565 1.01565 1.01565 1.01565 
1.01565 1.01565 1.01565 1.01565 1.01565 1.01564 1.01564 1.01564 1.01564 
1.01564 1.01564 1.01564 1.01564 1.01564 1.01564 1.01564 1.01564 1.01564 
1.01563 1.01563 1.01563 1.01563 1.01563 1.01563 1.01563 1.01563 1.01563 
1.01563 1.01563 1.01563 1.01565 1.01566 1.01565 1.01565 1.01565 1.01565 
1.01565 1.01565 1.01565 1.01565 1.01565 1.01565 1.01565 1.01565 1.01565 
1.01565 1.01565 1.01565 1.01565 1.01565 1.01565 1.01564 1.01564 1.01564 
1.01564 1.01564 1.01564 1.01564 1.01564 1.01564 1.01564 1.01564 1.01564 
1.01564 1.01564 1.01564 1.01564 1.01564 1.01564 1.01564 1.01566 1.01566 
1.01566 1.01566 1.01566 1.01566 1.01566 1.01566 1.01566 1.01566 1.01566 
1.01566 1.01566 1.01565 1.01565 1.01565 1.01565 1.01565 1.01565 1.01565 
1.01565 1.01565 1.01565 1.01565 1.01565 1.01565 1.01565 1.01565 1.01565 
1.01565 1.01564 1.01564 1.01564 1.01564 1.01564 1.01564 1.01564 1.01564 
1.01564 1.01564 1.01566 1.01566 1.01566 1.01566 1.01566 1.01566 1.01566 
1.01566 1.01566 1.01566 1.01566 1.01566 1.01566 1.01566 1.01566 1.01566 
1.01566 1.01566 1.01566 1.01566 1.01566 1.01565 1.01565 1.01565 1.01565 
1.01565 1.01565 1.01565 1.01565 1.01565 1.01565 1.01565 1.01565 1.01565 
1.01565 1.01565 1.01565 1.01565 1.01565 1.01565 1.01567 1.01567 1.01567 
1.01567 1.01567 1.01567 1.01567 1.01567 1.01566 1.01566 1.01566 1.01566 
1.01566 1.01566 1.01566 1.01566 1.01566 1.01566 1.01566 1.01566 1.01566 
1.01566 1.01566 1.01566 1.01566 1.01566 1.01566 1.01566 1.01566 1.01566 
1.01566 1.01566 1.01566 1.01565 1.01565 1.01565 1.01565 1.01565 1.01565 
1.01565 1.01567 1.01567 1.01567 1.01567 1.01567 1.01567 1.01567 1.01567 
1.01567 1.01567 1.01567 1.01567 1.01567 1.01567 1.01567 1.01567 1.01567 
1.01567 1.01567 1.01567 1.01567 1.01566 1.01566 1.01566 1.01566 1.01566 
1.01566 1.01566 1.01566 1.01566 1.01566 1.01566 1.01566 1.01566 1.01566 
1.01566 1.01566 1.01566 1.01566 1.01566 1.01567 1.01567 1.01567 1.01567 
1.01567 1.01567 1.01567 1.01567 1.01567 1.01567 1.01567 1.01567 1.01567 
1.01567 1.01567 1.01567 1.01567 1.01567 1.01567 1.01567 1.01567 1.01567 
1.01567 1.01567 1.01567 1.01567 1.01567 1.01567 1.01567 1.01567 1.01567 
1.01567 1.01567 1.01567 1.01567 1.01567 1.01567 1.01567 1.01567 1.01567 
1.01568 1.01568 1.01568 1.01568 1.01568 1.01568 1.01568 1.01568 1.01568 
1.01568 1.01568 1.01568 1.01568 1.01568 1.01568 1.01568 1.01568 1.01568 
1.01568 1.01568 1.01568 1.01568 1.01568 1.01567 1.01567 1.01567 1.01567 
1.01567 1.01567 1.01567 1.01567 1.01567 1.01567 1.01567 1.01567 1.01567 
1.01567 1.01567 1.01567 1.01567 1.01568 1.01568 1.01568 1.01568 1.01568 
1.01568 1.01568 1.01568 1.01568 1.01568 1.01568 1.01568 1.01568 1.01568 
1.01568 1.01568 1.01568 1.01568 1.01568 1.01568 1.01568 1.01568 1.01568 
1.01568 1.01568 1.01568 1.01568 1.01568 1.01568 1.01568 1.01568 1.01568 
1.01568 1.01568 1.01568 1.01568 1.01568 1.01568 1.01568 1.01568 1.01569 
1.01569 1.01569 1.01569 1.01569 1.01569 1.01569 1.01569 1.01569 1.01569 
1.01569 1.01569 1.01569 1.01569 1.01569 1.01569 1.01569 1.01569 1.01569 
1.01569 1.01569 1.01569 1.01569 1.01569 1.01569 1.01569 1.01569 1.01569 
1.01569 1.01568 1.01568 1.01568 1.01568 1.01568 1.01568 1.01568 1.01568 
1.01568 1.01568 1.01568 1.01569 1.0157 1.01569 1.01569 1.01569 1.01569 
1.01569 1.01569 1.01569 1.01569 1.01569 1.01569 1.01569 1.01569 1.01569 
1.01569 1.01569 1.01569 1.01569 1.01569 1.01569 1.01569 1.01569 1.01569 
1.01569 1.01569 1.01569 1.01569 1.01569 1.01569 1.01569 1.01569 1.01569 
1.01569 1.01569 1.01569 1.01569 1.01569 1.01569 1.01569 1.0157 1.0157 
1.0157 1.0157 1.0157 1.0157 1.0157 1.0157 1.0157 1.0157 1.0157 
1.0157 1.0157 1.0157 1.0157 1.0157 1.0157 1.0157 1.0157 1.0157 
1.0157 1.0157 1.0157 1.0157 1.0157 1.0157 1.0157 1.0157 1.0157 
1.0157 1.0157 1.0157 1.0157 1.0157 1.0157 1.0157 1.0157 1.0157 
1.0157 1.0157 1.01571 1.01571 1.01571 1.01571 1.01571 1.01571 1.01571 
1.01571 1.01571 1.01571 1.01571 1.01571 1.01571 1.01571 1.0157 1.0157 
1.0157 1.0157 1.0157 1.0157 1.0157 1.0157 1.0157 1.0157 1.0157 
1.0157 1.0157 1.0157 1.0157 1.0157 1.0157 1.0157 1.0157 1.0157 
1.0157 1.0157 1.0157 1.0157 1.0157 1.0157 1.01571 1.01571 1.01571 
1.01571 1.01571 1.01571 1.01571 1.01571 1.01571 1.01571 1.01571 1.01571 
1.01571 1.01571 1.01571 1.01571 1.01571 1.01571 1.01571 1.01571 1.01571 
1.01571 1.01571 1.01571 1.01571 1.01571 1.01571 1.01571 1.01571 1.01571 
1.01571 1.01571 1.01571 1.01571 1.01571 1.01571 1.01571 1.01571 1.01571 
1.01571 1.01572 1.01572 1.01572 1.01572 1.01572 1.01572 1.01572 1.01572 
1.01572 1.01572 1.01572 1.01572 1.01572 1.01572 1.01572 1.01572 1.01572 
1.01572 1.01572 1.01572 1.01572 1.01572 1.01572 1.01572 1.01572 1.01572 
1.01572 1.01572 1.01572 1.01572 1.01572 1.01572 1.01572 1.01572 1.01572 
1.01572 1.01572 1.01572 1.01572 1.01572 1.01573 1.01573 1.01573 1.01573 
1.01573 1.01573 1.01572 1.01572 1.01572 1.01572 1.01572 1.01572 1.01572 
1.01572 1.01572 1.01572 1.01572 1.01572 1.01572 1.01572 1.01572 1.01572 
1.01572 1.01572 1.01572 1.01572 1.01572 1.01572 1.01572 1.01572 1.01572 
1.01572 1.01572 1.01572 1.01572 1.01572 1.01572 1.01572 1.01572 1.01572 
1.01573 1.01573 1.01573 1.01573 1.01573 1.01573 1.01573 1.01573 1.01573 
1.01573 1.01573 1.01573 1.01573 1.01573 1.01573 1.01573 1.01573 1.01573 
1.01573 1.01573 1.01573 1.01573 1.01573 1.01573 1.01573 1.01573 1.01573 
1.01573 1.01573 1.01573 1.01573 1.01573 1.01573 1.01573 1.01573 1.01573 
1.01573 1.01573 1.01573 1.01573 1.01574 1.01574 1.01574 1.01574 1.01574 
1.01574 1.01574 1.01574 1.01574 1.01574 1.01574 1.01574 1.01574 1.01574 
1.01574 1.01574 1.01574 1.01574 1.01574 1.01573 1.01573 1.01573 1.01573 
1.01573 1.01573 1.01573 1.01573 1.01573 1.01574 1.01574 1.01574 1.01574 
1.01574 1.01574 1.01574 1.01574 1.01574 1.01574 1.01574 1.01574 
Velocity_m_p_s 3 12320 double
-0.070533759892 1.4059283785e-05 0 -0.071419395506 3.972290142e-05 0 -0.072186343372 6.6192049417e-05 0 
-0.072853408754 8.9376204414e-05 0 -0.073429018259 0.00011123803415 0 -0.07393052429 0.00012856200919 0 
-0.074373207986 0.00014179195568 0 -0.074782133102 0.00014806864783 0 -0.075188994408 0.00014635331172 0 
-0.075642347336 0.00013331141963 0 -0.07621126622 0.00010605286661 0 -0.076997868717 5.9727961343e-05 0 
-0.078147321939 -1.120835077e-05 0 -0.079856649041 -0.00011458291556 0 -0.082376375794 -0.0002582151792 0 
-0.085994228721 -0.0004497555492 0 -0.090972959995 -0.00068981980439 0 -0.097473971546 -0.0009736464126 0 
-0.10553845018 -0.0012920874869 0 -0.11507853866 -0.0016303907614 0 -0.12590509653 -0.0019728485495 0 
-0.13777011633 -0.0023040934466 0 -0.15040373802 -0.0026107705198 0 -0.16353973746 -0.0028819083236 0 
-0.1769285351 -0.0031088131946 0 -0.19034226239 -0.0032850443386 0 -0.20357522368 -0.0034058666788 0 
-0.21644197404 -0.0034684615675 0 -0.22877515852 -0.003471062053 0 -0.24042248726 -0.0034139067866 0 
-0.25124552846 -0.0032972760964 0 -0.26111629605 -0.003124545794 0 -0.26991844177 -0.0028966017999 0 
-0.27754151821 -0.002621434629 0 -0.28388771415 -0.002296798164 0 -0.2888572216 -0.0019411050016 0 
-0.29237157106 -0.0015373253264 0 -0.29432824254 -0.0011344192317 0 -0.29467889667 -0.00066310516559 0 
-0.2932779789 -0.00025689459289 0 -0.070681795478 2.831954771e-05 0 -0.071562811732 7.6147123764e-05 0 
-0.072324596345 0.00013071158901 0 -0.072981566191 0.00017998504336 0 -0.073543846607 0.00023182599398 0 
-0.074026048183 0.00027983091422 0 -0.074443273246 0.00032709504012 0 -0.074817791581 0.00036946678301 0 
-0.075179234147 0.00040692742914 0 -0.075572103262 0.00043519513565 0 -0.076060980558 0.00045093154768 0 
-0.076741524041 0.00044737639837 0 -0.077750861645 0.00041623323341 0 -0.079280100763 0.00034529523691 0 
-0.081580191851 0.0002205374476 0 -0.084956727922 2.7007832614e-05 0 -0.089705377817 -0.00024360594398 0 
-0.096010878682 -0.00058768654708 0 -0.1039410308 -0.00099335925188 0 -0.11342330277 -0.0014403088717 0 
-0.12426995486 -0.0019041177584 0 -0.13622581959 -0.0023609620985 0 -0.14900928736 -0.0027896016836 0 
-0.16234153509 -0.0031731296331 0 -0.17596125603 -0.0034984764643 0 -0.18963032961 -0.0037565210368 0 
-0.20313423872 -0.003941022791 0 -0.21628004313 -0.0040487088263 0 -0.22889381647 -0.0040779705159 0 
-0.24081775546 -0.0040298341773 0 -0.25190809369 -0.0039055051748 0 -0.26203286648 -0.0037098538596 0 
-0.27107086778 -0.003444833681 0 -0.27890944481 -0.003120635869 0 -0.28544521332 -0.002735454822 0 
-0.29057988524 -0.002311643213 0 -0.29422488809 -0.0018296806375 0 -0.29629027843 -0.0013490322744 0 
-0.29670056701 -0.0007846414228 0 -0.2953607738 -0.00030770810554 0 -0.070790559053 2.1649255359e-05 0 
-0.071673169732 6.1529601226e-05 0 -0.072438910604 0.00010512702283 0 -0.073100112379 0.00014551794447 0 
-0.07366783917 0.00018761707179 0 -0.07415574789 0.00022676472145 0 -0.074578948319 0.00026538275415 0 
-0.074958570302 0.00030003482243 0 -0.075323037803 0.00033095537219 0 -0.075714401901 0.00035449868301 0 
-0.076193809509 0.00036813115003 0 -0.076851785183 0.00036602863111 0 -0.077818579972 0.00034128472907 0 
-0.079277284443 0.00028341388679 0 -0.081471033394 0.00017974850198 0 -0.084703102708 1.4822131561e-05 0 
-0.089284822345 -0.00022565470135 0 -0.095429562032 -0.00054002931574 0 -0.10322290659 -0.00091851956677 0 
-0.11260973662 -0.0013447654201 0 -0.1234106198 -0.0017949091271 0 -0.1353700161 -0.002245642012 0 
-0.14820049703 -0.0026747251395 0 -0.16161511838 -0.003064221004 0 -0.17534415424 -0.0033996477723 0 
-0.18914191425 -0.0036706116516 0 -0.20278736949 -0.0038696103729 0 -0.21608220041 -0.003992327489 0 
-0.22884789109 -0.0040361871943 0 -0.24092288315 -0.0040015475824 0 -0.25216013193 -0.0038889208809 0 
-0.26242485642 -0.0037029802334 0 -0.27159330249 -0.0034451133106 0 -0.27955061197 -0.0031259856187 0 
-0.28619110584 -0.0027429885231 0 -0.29141506553 -0.0023200784344 0 -0.29513120651 -0.0018361222465 0 
-0.29724982381 -0.0013535292819 0 -0.29769068956 -0.00078653829405 0 -0.29636642337 -0.0003033936955 0 
-0.070906281471 2.9217411793e-05 0 -0.071788802743 8.0983627413e-05 0 -0.072551436722 0.00013903906802 0 
-0.073207430542 0.00019218309899 0 -0.073767058551 0.00024822371779 0 -0.074243582785 0.00030053214869 0 
-0.074651248753 0.00035272238893 0 -0.075009875 0.0004003708309 0 -0.0753460899 0.00044404380606 0 
-0.075699232519 0.00047948589781 0 -0.076126813889 0.00050393864512 0 -0.076714396477 0.00051115755923 0 
-0.077586323023 0.00049348780885 0 -0.078919373453 0.00044038658962 0 -0.080951474607 0.00033765996341 0 
-0.083983719349 0.00017059671518 0 -0.088355116546 -7.8895951447e-05 0 -0.094312161207 -0.00041112385225 0 
-0.10195863247 -0.00081455393229 0 -0.11125893891 -0.0012732668547 0 -0.12204160541 -0.0017606959445 0 
-0.13404798508 -0.0022515021265 0 -0.14698198438 -0.0027208367828 0 -0.16054534912 -0.0031487520318 0 
-0.17445738614 -0.0035190761555 0 -0.18846234679 -0.003820217913 0 -0.202330634 -0.0040438608266 0 
-0.21585665643 -0.00418521557 0 -0.22885577381 -0.0042414856143 0 -0.24116118252 -0.0042130555958 0 
-0.25262132287 -0.0041005630046 0 -0.26309752464 -0.0039090551436 0 -0.27246248722 -0.0036401848774 0 
-0.28059846163 -0.003305337159 0 -0.2873967886 -0.0029020053335 0 -0.292755723 -0.0024555576965 0 
-0.29658120871 -0.001943908981 0 -0.29878240824 -0.0014332281426 0 -0.29927635193 -0.00083216116764 0 
-0.2979734838 -0.00032172887586 0 -0.071055851877 2.7522419259e-05 0 -0.071939714253 7.7312113717e-05 0 
-0.072704851627 0.00013256986858 0 -0.073363177478 0.00018376235676 0 -0.073925353587 0.00023779303592 0 
-0.074403747916 0.00028870592359 0 -0.074812225997 0.00033993794932 0 -0.075169280171 0.00038740690798 0 
-0.075500018895 0.0004318569263 0 -0.075841017067 0.00046936378931 0 -0.076246216893 0.00049755146028 0 
-0.07679566741 0.00051067135064 0 -0.077607288957 0.00050145370187 0 -0.078849300742 0.00046009776997 0 
-0.080752879381 0.00037204226828 0 -0.083613455296 0.00022364679899 0 -0.087776385248 -5.660243005e-06 0 
-0.093533277512 -0.00032243819442 0 -0.10100676119 -0.00071531068534 0 -0.11018322408 -0.0011702992488 0 
-0.12090450525 -0.0016609185841 0 -0.13291248679 -0.0021609524265 0 -0.14590513706 -0.0026442792732 0 
-0.15957421064 -0.0030892905779 0 -0.17362859845 -0.0034784206655 0 -0.18780274689 -0.0037987141404 0 
-0.20185852051 -0.0040408032946 0 -0.21558302641 -0.0041990070604 0 -0.22878544033 -0.0042698630132 0 
-0.24129369855 -0.0042532850057 0 -0.25295168161 -0.0041495747864 0 -0.26361677051 -0.0039636734873 0 
-0.27315810323 -0.0036971373484 0 -0.28145483136 -0.0033616106957 0 -0.28839543462 -0.0029545640573 0 
-0.29387572408 -0.002502141986 0 -0.29779919982 -0.0019819180015 0 -0.30007341504 -0.0014618836576 0 
-0.30061292648 -0.00084908748977 0 -0.2993286252 -0.00032819790067 0 -0.07117690891 3.1336068787e-05 0 
-0.072061449289 8.7272150267e-05 0 -0.072825521231 0.00014979766274 0 -0.073481433094 0.00020728660456 0 
-0.074039272964 0.00026800285559 0 -0.074511177838 0.00032494327752 0 -0.074910275638 0.00038218009286 0 
-0.075254097581 0.00043506143265 0 -0.075566217303 0.0004846927477 0 -0.075880877674 0.0005267719971 0 
-0.076248772442 0.00055931584211 0 -0.076745226979 0.00057621800806 0 -0.077482454479 0.00057093473151 0 
-0.078621283174 0.00053304288303 0 -0.080387026072 0.00044933773461 0 -0.083070032299 0.00030442388379 0 
-0.087020821869 7.978866779e-05 0 -0.092572644353 -0.00023667849018 0 -0.099873431027 -0.00063521962147 0 
-0.10893043876 -0.0011000913801 0 -0.11959919333 -0.0016060505295 0 -0.13162212074 -0.002124607563 0 
-0.14469054341 -0.0026288297959 0 -0.1584854871 -0.0030952226371 0 -0.17270454764 -0.003505224362 0 
-0.18707157671 -0.0038447438274 0 -0.20133927464 -0.0041037481278 0 -0.21528685093 -0.0042759869248 0 
-0.22871682048 -0.0043576667085 0 -0.24145144224 -0.0043485010974 0 -0.25332969427 -0.0042487070896 0 
-0.26420468092 -0.0040632905439 0 -0.27394175529 -0.0037938733585 0 -0.28241676092 -0.0034524188377 0 
-0.28951516747 -0.0030364540871 0 -0.29513013363 -0.0025728761684 0 -0.29916274548 -0.0020388180856 0 
-0.30151849985 -0.0015043364838 0 -0.30210995674 -0.00087366369553 0 -0.30084630847 -0.0003380716953 0 
-0.071338787675 3.149523036e-05 0 -0.072224445641 8.8076907559e-05 0 -0.072989776731 0.00015115411952 0 
-0.073646396399 0.00020940692048 0 -0.074204437435 0.00027102741296 0 -0.074675418437 0.00032910145819 0 
-0.075071945786 0.0003878113348 0 -0.075410492718 0.00044253683882 0 -0.07571311295 0.00049464695621 0 
-0.076011747122 0.00053984904662 0 -0.076353676617 0.00057667167857 0 -0.076809555292 0.00059889635304 0 
-0.077485159039 0.00060096080415 0 -0.078533895314 0.00057174946414 0 -0.080172911286 0.00049988529645 0 
-0.082687214017 0.00036723844823 0 -0.086426578462 0.00015891648945 0 -0.091756880283 -0.00014496485528 0 
-0.098864883184 -0.00053805287462 0 -0.10777813196 -0.0010014818981 0 -0.11836826056 -0.0015134963905 0 
-0.13038188219 -0.0020428430289 0 -0.14350457489 -0.0025621938985 0 -0.15740731359 -0.0030459351838 0 
-0.17177610099 -0.0034743987489 0 -0.18632395566 -0.0038321618922 0 -0.20079389215 -0.0041083297692 0 
-0.21495693922 -0.0042959102429 0 -0.22860859334 -0.0043906006031 0 -0.2415651381 -0.0043917717412 0 
-0.25366035104 -0.0042994203977 0 -0.26474288106 -0.00411850214 0 -0.27467405796 -0.0038506207056 0 
-0.2833262682 -0.003507956164 0 -0.29058170319 -0.0030880824197 0 -0.29633080959 -0.0026184986345 0 
-0.30047211051 -0.0020760926418 0 -0.302908957 -0.0015324715059 0 -0.30355173349 -0.00089017103892 0 
-0.30230861902 -0.00034460597089 0 -0.07147359103 3.3576699934e-05 0 -0.072360239923 9.3650880444e-05 0 
-0.073125466704 0.00016075411986 0 -0.073780946434 0.00022254206124 0 -0.074336446822 0.00028787727933 0 
-0.074803262949 0.00034931808477 0 -0.07519339025 0.00041139253881 0 -0.075522512197 0.000469227758 0 
-0.075811289251 0.00052443396999 0 -0.076089717448 0.00057263346389 0 -0.076401904225 0.00061266857665 0 
-0.076814465225 0.00063833384775 0 -0.077426962554 0.00064464990282 0 -0.07838626951 0.00062039430486 0 
-0.079900957644 0.00055524066556 0 -0.082251831889 0.00042996066622 0 -0.085786908865 0.00023144662555 0 
-0.090888306499 -6.4087318606e-05 0 -0.097801968455 -0.00045484007569 0 -0.10656838119 -0.0009199938504 0 
-0.11707689613 -0.0014398271451 0 -0.12908066809 -0.0019812062383 0 -0.14225929976 -0.0025159155484 0 
-0.15627382696 -0.0030167044606 0 -0.17079809308 -0.0034626880661 0 -0.18553388119 -0.0038373942953 0 
-0.20021410286 -0.0041291136295 0 -0.2146011889 -0.0043302848935 0 -0.22848333418 -0.0044361767359 0 
-0.24167059362 -0.0044459137134 0 -0.25399139524 -0.0043593333103 0 -0.26528969407 -0.0041813831776 0 
-0.2754227221 -0.0039136759005 0 -0.28425917029 -0.003568606684 0 -0.29167798162 -0.0031437997241 0 
-0.2975667417 -0.0026673150714 0 -0.30182123184 -0.0021157765295 0 -0.30434268713 -0.0015623116633 0 
-0.30503934622 -0.00090757705038 0 -0.30381771922 -0.0003515688586 0 -0.071638762951 3.4383163438e-05 0 
-0.072526492178 9.6018688055e-05 0 -0.073292411864 0.00016481813509 0 -0.073947846889 0.0002282729547 0 
-0.074502497911 0.00029542672564 0 -0.074967220426 0.00035874993773 0 -0.07535354048 0.00042290700367 0 
-0.075676292181 0.00048304474331 0 -0.075954809785 0.00054088892648 0 -0.076217181981 0.00059223384596 0 
-0.076504439116 0.00063603464514 0 -0.076879121363 0.00066649314249 0 -0.077434696257 0.00067869614577 0 
-0.078311137855 0.00066214357503 0 -0.079708091915 0.00060621049488 0 -0.08190061897 0.00049257004866 0 
-0.085233062506 0.00030630634865 0 -0.09009899199 2.3990696718e-05 0 -0.096802383661 -0.00035875986214 0 
-0.10540404171 -0.00082260556519 0 -0.11581283808 -0.0013467728859 0 -0.12779057026 -0.001898313174 0 
-0.14101198316 -0.002446932951 0 -0.15512832999 -0.0029642996378 0 -0.16980102658 -0.0034277853556 0 
-0.18472015858 -0.0038199522533 0 -0.19960801303 -0.0041280491278 0 -0.21421806514 -0.0043439189903 0 
-0.2283308208 -0.0044623003341 0 -0.24174980819 -0.0044820373878 0 -0.25429785252 -0.0044027608819 0 
-0.26581397653 -0.0042293835431 0 -0.27615112066 -0.0039635095745 0 -0.2851741612 -0.0036177278962 0 
-0.29275864363 -0.0031897199806 0 -0.29878905416 -0.0027080653235 0 -0.30315855145 -0.0021491991356 0 
-0.30576592684 -0.0015876067337 0 -0.30651730299 -0.00092242326355 0 -0.3053175509 -0.00035748523078 0 
-0.071786373854 3.5786404624e-05 0 -0.07267524302 9.9864169897e-05 0 -0.073441445827 0.00017142797878 0 
-0.074096255004 0.00023737808806 0 -0.07464915514 0.00030715842149 0 -0.075110755861 0.00037294634967 0 
-0.075492113829 0.00043960727635 0 -0.075807370245 0.00050221377751 0 -0.076074697077 0.00056258920813 0 
-0.076320409775 0.00061668234412 0 -0.076582826674 0.00066347565735 0 -0.076920598745 0.00069766811794 0 
-0.077421605587 0.00071422889596 0 -0.078218884766 0.00070370745379 0 -0.079503640532 0.00065480539342 0 
-0.081543959677 0.00055097980658 0 -0.084680147469 0.00037475113641 0 -0.089312650263 0.00010519594798 0 
-0.09579732269 -0.00026965508005 0 -0.10422617942 -0.00073266919935 0 -0.11452719569 -0.0012603919022 0 
-0.12647199631 -0.0018216726603 0 -0.13973170519 -0.0023834099993 0 -0.15394772589 -0.002916688798 0 
-0.16876885295 -0.0033969050273 0 -0.18387293816 -0.003805808723 0 -0.19897133112 -0.0041295648552 0 
-0.21380808949 -0.0043594720773 0 -0.22815576196 -0.0044897478074 0 -0.24181112647 -0.0045189717785 0 
-0.25459116697 -0.0044465786777 0 -0.26632988453 -0.0042774477042 0 -0.27687573433 -0.0040131770074 0 
-0.28608968854 -0.0036665359512 0 -0.29384371638 -0.0032352635171 0 -0.30001923442 -0.0027484321035 0 
-0.3045065701 -0.0021822918206 0 -0.30720210075 -0.0016126428964 0 -0.30800974369 -0.00093710178044 0 
-0.30683255196 -0.00036335521145 0 -0.071953475475 3.6796820496e-05 0 -0.072843462229 0.00010271353676 0 
-0.073610164225 0.00017632471281 0 -0.074264705181 0.00024420209229 0 -0.074816420674 0.00031605636468 0 
-0.075275637209 0.0003839043784 0 -0.075653024018 0.00045276468154 0 -0.075961992145 0.00051770178834 0 
-0.076219685376 0.0005806228146 0 -0.076450683177 0.00063766440144 0 -0.076690785587 0.00068781763548 0 
-0.076994739473 0.00072631274816 0 -0.077445238829 0.0007479180349 0 -0.078168042004 0.00074435718125 0 
-0.079346306622 0.00070336234057 0 -0.081239625812 0.00061069638468 0 -0.084184281528 0.00044538479415 0 
-0.088583000004 0.00019108770357 0 -0.094834029675 -0.00017350683629 0 -0.10307652503 -0.0006346196169 0 
-0.11325540394 -0.0011639918666 0 -0.12515357137 -0.0017342639621 0 -0.13844098151 -0.0023086143192 0 
-0.15274894238 -0.002857835032 0 -0.16771370173 -0.0033550893422 0 -0.18300016224 -0.0037812560331 0 
-0.19830830395 -0.0041213426739 0 -0.21337231994 -0.0043660295196 0 -0.22795648873 -0.0045089898631 0 
-0.24185046554 -0.0045484979637 0 -0.25486522913 -0.0044837850146 0 -0.26682949066 -0.0043196794577 0 
-0.27758711576 -0.0040577719919 0 -0.28699496388 -0.0037110056728 0 -0.29492136836 -0.0032771844417 0 
-0.3012444973 -0.002785861725 0 -0.30585181713 -0.002213134896 0 -0.30863717198 -0.0016360627487 0 
-0.30950221419 -0.00095087330556 0 -0.30834811926 -0.00036885848385 0 -0.072111234069 3.7967987737e-05 0 
-0.073002420366 0.00010595619824 0 -0.073769569397 0.00018190099217 0 -0.074423700571 0.00025191553868 0 
-0.074974022806 0.0003260440717 0 -0.075430616736 0.00039606058272 0 -0.07580383122 0.0004671800998 0 
-0.076106436551 0.00053438148461 0 -0.076354660094 0.00059971760493 0 -0.076571449637 0.0006593944272 0 
-0.076790377498 0.00071255286457 0 -0.077062405646 0.00075471925084 0 -0.077465496957 0.00078080681851 0 
-0.078118041158 0.00078321015462 0 -0.079195685685 0.0007495280588 0 -0.080948330462 0.0006667166017 0 
-0.083708919585 0.00051222043112 0 -0.087880440056 0.00027167037479 0 -0.093884110451 -8.1498692452e-05 0 
-0.10193248093 -0.00053894351004 0 -0.11197905242 -0.0010693682125 0 -0.12382040918 -0.0016475471202 0 
-0.1371281296 -0.0022340212017 0 -0.15152311325 -0.0027985863853 0 -0.16662909091 -0.0033125977498 0 
-0.1820974201 -0.0037557489704 0 -0.19761633873 -0.0041120359674 0 -0.21290969849 -0.0043714032508 0 
-0.22773316503 -0.0045270216651 0 -0.24186910689 -0.0045768213458 0 -0.25512218475 -0.0045198374428 0 
-0.26731568575 -0.0043608313426 0 -0.27828875184 -0.0041013872251 0 -0.28789398074 -0.0037546108942 0 
-0.2959959805 -0.0033183712512 0 -0.30246961117 -0.0028226894792 0 -0.30719932914 -0.0022435188293 0 
-0.31007638574 -0.0016591538442 0 -0.31100010872 -0.00096445629606 0 -0.30986970663 -0.00037429513759 0 
-0.072280935943 3.9041104174e-05 0 -0.073173306882 0.00010894498701 0 -0.073940940201 0.00018704336253 0 
-0.074594758451 0.00025905080838 0 -0.075143866241 0.00033532644738 0 -0.07559812814 0.00040742298006 0 
-0.075967572629 0.00048076486564 0 -0.07626439631 0.00055022491142 0 -0.07650397718 0.00061805703444 0 
-0.076707735658 0.00068044423824 0 -0.076907135546 0.00073682295624 0 -0.07714959234 0.00078276568092 0 
-0.077508449554 0.00081370567204 0 -0.078094989061 0.00082208559616 0 -0.07907717675 0.0007963507087 0 
-0.080695003271 0.00072310882388 0 -0.083276458085 0.00058076006826 0 -0.08722294122 0.00035277521238 0 
-0.092973649502 1.2743611478e-05 0 -0.10081367195 -0.00043815735262 0 -0.11071364582 -0.00096950179432 0 
-0.12248524278 -0.0015543733025 0 -0.13580298424 -0.0021529721562 0 -0.150277704 -0.0027327232528 0 
-0.16552038491 -0.0032638565172 0 -0.1811683923 -0.0037243596744 0 -0.19689765573 -0.0040973909199 0 
-0.21242126822 -0.0043719788082 0 -0.22748589516 -0.0045408280566 0 -0.24186627567 -0.0046014646068 0 
-0.25536060333 -0.0045527326874 0 -0.26778650284 -0.0043993094005 0 -0.27897816896 -0.0041427719407 0 
-0.28878390789 -0.0037963862997 0 -0.29706442356 -0.003358090762 0 -0.30369111896 -0.0028583719395 0 
-0.30854541063 -0.0022730543278 0 -0.31151586771 -0.0016816521529 0 -0.31249946356 -0.00097771233413 0 
-0.31139338017 -0.00037960140617 0 -0.072446644306 4.0146878746e-05 0 -0.073340259492 0.00011201374582 0 
-0.074108399451 0.00019232400518 0 -0.074761919677 0.00026636384428 0 -0.075309798121 0.00034481848706 0 
-0.07576175034 0.00041899472126 0 -0.076127506793 0.00049453729298 0 -0.07641877234 0.00056618230883 0 
-0.076650127769 0.00063640874578 0 -0.076841667295 0.00070132006658 0 -0.077022798359 0.00076071236981 0 
-0.077237732708 0.00081008276902 0 -0.077555261552 0.0008455531206 0 -0.078080065548 0.00085934944218 0 
-0.078972131014 0.00084118987434 0 -0.080461837351 0.00077678100206 0 -0.082870438695 0.0006465028855 0 
-0.086596876383 0.0004305987095 0 -0.092092782259 0.00010511089931 0 -0.099711120129 -0.00033787885332 0 
-0.10945221037 -0.00086973421276 0 -0.12114271522 -0.0014600281138 0 -0.13446117938 -0.002070348477 0 
-0.14900927246 -0.0026648046914 0 -0.16438490152 -0.0032129937317 0 -0.1802110672 -0.0036908246111 0 
-0.19615079463 -0.0040807332844 0 -0.21190603077 -0.0043707084842 0 -0.22721408308 -0.004553001374 0 
-0.24184174836 -0.0046246973798 0 -0.25558048487 -0.0045844400302 0 -0.26824212074 -0.0044368128292 0 
-0.27965578437 -0.0041833776049 0 -0.28966525197 -0.0038375561126 0 -0.29812729359 -0.003397355089 0 
-0.30490976572 -0.002893724246 0 -0.30989092588 -0.0023023646791 0 -0.31295657158 -0.0017040050589 0 
-0.31400129199 -0.0009908915963 0 -0.31292012334 -0.00038488206337 0 -0.072619780898 4.1240924475e-05 0 
-0.073514632881 0.00011505200382 0 -0.074283279479 0.00019755089306 0 -0.074936524034 0.00027360630338 0 
-0.075483240187 0.0003542266204 0 -0.075933009386 0.000430481683 0 -0.076295271516 0.00050823279889 0 
-0.076581336558 0.00058208312839 0 -0.076805002987 0.00065473321592 0 -0.076985180378 0.00072219810681 0 
-0.077149301767 0.00078464060789 0 -0.077338673174 0.00083743676078 0 -0.077617570758 0.00087745691417 0 
-0.078084550798 0.00089655816555 0 -0.078891299665 0.00088599382434 0 -0.080259054899 0.00083010166418 0 
-0.082500547171 0.00071217858931 0 -0.086012154818 0.00050783884944 0 -0.09125263989 0.00019882286142 0 
-0.098633430898 -0.00023473476176 0 -0.10820255429 -0.00076716940384 0 -0.119799532 -0.0013614882482 0 
-0.13310775161 -0.0019833813421 0 -0.14772160351 -0.0025923321955 0 -0.16322527826 -0.0031577970367 0 
-0.17922724783 -0.0036532701924 0 -0.19537688792 -0.0040604844689 0 -0.21136462688 -0.0043663154356 0 
-0.2269179225 -0.004562520422 0 -0.24179539084 -0.0046457303688 0 -0.25578147173 -0.0046143629588 0 
-0.26868200302 -0.0044729048386 0 -0.2803208828 -0.0042228940874 0 -0.29053720832 -0.0038779103197 0 
-0.29918369651 -0.0034360277932 0 -0.30612453818 -0.0029286628123 0 -0.31123477221 -0.002331400523 0 
-0.31439736485 -0.0017261857865 0 -0.31550440192 -0.001003983547 0 -0.31444877386 -0.0003901294258 0 
-0.072791956365 4.2336905608e-05 0 -0.073688089848 0.00011809876014 0 -0.074457287788 0.00020278991724 0 
-0.075110286474 0.00028086590464 0 -0.07565587759 0.0003636458714 0 -0.076103530824 0.00044197123498 0 
-0.076462447643 0.00052189762937 0 -0.0767435655 0.0005979181733 0 -0.076959967613 0.00067290826701 0 
-0.077129542828 0.00074285105802 0 -0.077277816832 0.00080817332491 0 -0.07744345814 0.00086426606867 0 
-0.077686317265 0.00090852490393 0 -0.078099362552 0.00093275931431 0 -0.078825652599 0.00092928530648 0 
-0.080077908933 0.00088182056788 0 -0.082158558071 0.00077559426427 0 -0.085462279618 0.00058320607059 0 
-0.090452030301 0.00029001271469 0 -0.097575701773 -0.00013235850201 0 -0.10696271062 -0.00066364050144 0 
-0.11845441908 -0.0012612593127 0 -0.13174144924 -0.001893981942 0 -0.14641359448 -0.0025172957685 0 
-0.16204048693 -0.00309992861 0 -0.17821602523 -0.003613246372 0 -0.19457517564 -0.0040379776619 0 
-0.2107964009 -0.004359989427 0 -0.22659687698 -0.0045704161748 0 -0.2417267561 -0.0046654650941 0 
-0.25596320629 -0.0046432809904 0 -0.26910588145 -0.0045082592405 0 -0.28097322583 -0.0042618988082 0 
-0.29139962792 -0.0039179367013 0 -0.30023354292 -0.0034745135345 0 -0.30733540654 -0.0029635143001 0 
-0.3125769794 -0.0023604123853 0 -0.31583827734 -0.0017483745469 0 -0.31700888276 -0.0010170893511 0 
-0.31597936153 -0.00039538604324 0 -0.072969056666 4.3442290917e-05 0 -0.073866471648 0.00012117122969 0 
-0.074636206031 0.00020807005058 0 -0.075288966298 0.000288182433 0 -0.075833462179 0.00037313377834 0 
-0.076279059052 0.0004535492335 0 -0.076634757221 0.0005356586189 0 -0.076911173761 0.00061387510505 0 
-0.077120736241 0.00069119653199 0 -0.077280387282 0.00076364685083 0 -0.077413879335 0.00083178945351 0 
-0.077557452023 0.00089121051133 0 -0.077766723931 0.00093952467432 0 -0.078129298985 0.00096895516617 0 
-0.078779838979 0.00097214151174 0 -0.079922437668 0.00093338324223 0 -0.081848613918 0.00083801464643 0 
-0.08494989574 0.00065871450352 0 -0.08969116956 0.0003794231452 0 -0.096548065543 -3.0129212973e-05 0 
-0.10573840141 -0.00055724714184 0 -0.11711104214 -0.001158309984 0 -0.13036516309 -0.00180084561 0 
-0.14508724213 -0.0024387110025 0 -0.16083197296 -0.0030384433921 0 -0.17717829347 -0.003570004832 0 
-0.19374616444 -0.0040125860833 0 -0.21020157635 -0.0043512466364 0 -0.22625100613 -0.0045763198286 0 
-0.2416357547 -0.0046836370602 0 -0.25612550974 -0.004671013914 0 -0.26951345801 -0.0045427628793 0 
-0.28161251545 -0.0043003289029 0 -0.29225212336 -0.0039576101117 0 -0.30127641559 -0.0035128113814 0 
-0.30854195356 -0.0029982924461 0 -0.31391713023 -0.0023894188926 0 -0.3172788918 -0.0017705893843 0 
-0.31851428747 -0.0010302215815 0 -0.31751155853 -0.00040065537905 0 -0.073146782815 4.4546646677e-05 0 
-0.074045516551 0.0001242441067 0 -0.074815817177 0.00021334909252 0 -0.075468368828 0.0002954985539 0 
-0.076011799276 0.00038261499139 0 -0.076455414295 0.00046511430992 0 -0.076808020473 0.00054938398534 0 
-0.077079951763 0.00062977522612 0 -0.077283076942 0.00070937053533 0 -0.077433422208 0.00078428076813 0 
-0.07755317539 0.00085511780344 0 -0.077676221728 0.00091777922353 0 -0.077854312956 0.00096989551093 0 
-0.078169763088 0.0010043921648 0 -0.078749291599 0.0010137800127 0 -0.079788029194 0.00098364683799 0 
-0.081566646695 0.00089846178889 0 -0.084471262991 0.00073264847742 0 -0.088967360556 0.00046664779074 0 
-0.095551967621 7.1640817623e-05 0 -0.10452987254 -0.0004494888417 0 -0.1157694757 -0.0010538279312 0 
-0.12897913158 -0.0017051029718 0 -0.14374244213 -0.0023574966472 0 -0.15959952772 -0.002974151168 0 
-0.17611372471 -0.0035242275335 0 -0.19288948178 -0.0039849057794 0 -0.2095797509 -0.0043405969627 0 
-0.22587989271 -0.004580677487 0 -0.24152201414 -0.0047006318346 0 -0.25626799464 -0.0046978979371 0 
-0.26990443468 -0.0045767077245 0 -0.28223845363 -0.0043384372257 0 -0.2930944562 -0.0039971466176 0 
-0.30231210589 -0.0035511031747 0 -0.30974403024 -0.0030331453308 0 -0.31525504589 -0.0024185348302 0 
-0.31871908903 -0.0017929134192 0 -0.32002052665 -0.0010434271535 0 -0.31904521585 -0.00040595713654 0 
-0.073328077793 4.5663731726e-05 0 -0.074228130281 0.00012734917982 0 -0.074998989701 0.00021868248587 0 
-0.075651325285 0.00030288644484 0 -0.076193705201 0.00039218462189 0 -0.076635368168 0.00047678189003 0 
-0.076984986663 0.00056322064484 0 -0.077252611518 0.00064579298487 0 -0.077449627221 0.00072765251389 0 
-0.077591218054 0.00080501049524 0 -0.077698156238 0.00087848718977 0 -0.077802069485 0.00094433821505 0 
-0.077951163054 0.0010001029586 0 -0.078222550452 0.0010395562276 0 -0.078735508025 0.0010548107093 0 
-0.079675853252 0.0010331795784 0 -0.08131365478 0.00095761421835 0 -0.084027662873 0.00080549804261 0 
-0.088282816112 0.00055225554388 0 -0.094592154026 0.00017378189659 0 -0.10333960503 -0.00033981809975 0 
-0.11443234235 -0.00094748457195 0 -0.12758554518 -0.001606286969 0 -0.14238069952 -0.0022732215002 0 
-0.15834410489 -0.0029066738207 0 -0.1750228107 -0.0034755792003 0 -0.19200539589 -0.0039546806365 0 
-0.20893099904 -0.0043278345838 0 -0.22548349202 -0.0045833480544 0 -0.24138537049 -0.004716350697 0 
-0.25639051199 -0.004723879043 0 -0.27027860284 -0.0046100686304 0 -0.28285083175 -0.0043762237765 0 
-0.29392641783 -0.0040365611203 0 -0.30334043503 -0.003589412896 0 -0.31094139814 -0.0030681004282 0 
-0.31659057736 -0.0024477855768 0 -0.32015872002 -0.0018153680721 0 -0.32152742147 -0.0010567194549 0 
-0.32058015466 -0.0004112959723 0 -0.073510780931 4.6782915888e-05 0 -0.074412174523 0.00013045954984 0 
-0.075183615088 0.00022402564355 0 -0.075835742056 0.00031028586091 0 -0.076377101243 0.00040176787297 0 
-0.076816856861 0.00048845785204 0 -0.07716357708 0.00057705945801 0 -0.077427066863 0.00066179136047 0 
-0.077618293464 0.00074589066207 0 -0.077751643956 0.00082564185141 0 -0.077846646309 0.00090169656323 0 
-0.077932722867 0.00097062013811 0 -0.078054919839 0.0010298995767 0 -0.078285135329 0.0010740929283 0 
-0.078735865653 0.0010949599091 0 -0.079583108425 0.0010815281421 0 -0.081087000668 0.0010151938768 0 
-0.083616562188 0.00087667891057 0 -0.08763679862 0.00063576252433 0 -0.093671113253 0.00027529147337 0 
-0.10216762125 -0.00022903156059 0 -0.11310060322 -0.00083981454372 0 -0.12618555129 -0.001504910877 0 
-0.14100247622 -0.0021862110589 0 -0.15706594288 -0.0028363775928 0 -0.17390555143 -0.0034243084956 0 
-0.19109374285 -0.0039221649058 0 -0.20825505257 -0.0043131564744 0 -0.22506150603 -0.0045845187269 0 
-0.24122554064 -0.0047309533693 0 -0.25649273396 -0.0047491029836 0 -0.27063566446 -0.0046429745853 0 
-0.28344941139 -0.004413804505 0 -0.29474779963 -0.0040759551339 0 -0.30436119437 -0.0036278280895 0 
-0.31213393807 -0.0031032313127 0 -0.31792357564 -0.0024772295728 0 -0.32159763575 -0.0018379956018 0 
-0.32303488255 -0.0010701227002 0 -0.32211634517 -0.00041668207268 0 -0.073696300387 4.7914018069e-05 0 
-0.074599049985 0.00013359844161 0 -0.075371064246 0.00022941881616 0 -0.076022982597 0.0003177493054 0 
-0.076563313603 0.00041143287672 0 -0.077001184225 0.00050022295909 0 -0.077345080674 0.00059100077488 0 
-0.077604562044 0.0006778849056 0 -0.077790275216 0.00076422980055 0 -0.07791582495 0.00084633304505 0 
-0.077999666333 0.00092495750869 0 -0.078069098294 0.0009968385566 0 -0.078166283667 0.0010596048087 0 
-0.078358069062 0.0011082733981 0 -0.078750588 0.0011347347172 0 -0.079509861767 0.0011289811227 0 
-0.080886483192 0.001072071027 0 -0.083237908781 0.0009462973685 0 -0.087029486895 0.00071873905836 0 
-0.092792391777 0.00037459426676 0 -0.10101594776 -0.00011843720858 0 -0.11177691072 -0.00072974065552 0 
-0.12478102744 -0.0014010164887 0 -0.13960896432 -0.0020959898829 0 -0.15576575696 -0.0027631311677 0 
-0.17276228964 -0.0033701716457 0 -0.19015462697 -0.0038872356527 0 -0.20755188167 -0.0042964387685 0 
-0.22461380064 -0.0045841182582 0 -0.24104233086 -0.0047443895601 0 -0.25657445192 -0.0047735478729 0 
-0.27097541094 -0.0046754204668 0 -0.28403395414 -0.0044511877932 0 -0.295558393 -0.0041153468192 0 
-0.30537420511 -0.0036663713399 0 -0.31332147121 -0.0031385610346 0 -0.31925392151 -0.0025068873074 0 
-0.32303574681 -0.0018608132377 0 -0.32454285026 -0.0010836472502 0 -0.32365369797 -0.0004221193085 0 
-0.073883585632 4.9049795052e-05 0 -0.074787691236 0.00013674866932 0 -0.075560286641 0.00023483259429 0 
-0.076212003827 0.00032523844857 0 -0.076751314104 0.00042113111704 0 -0.077187329531 0.00051201978931 0 
-0.077528454363 0.00060497689992 0 -0.077784076333 0.00069399568019 0 -0.077964514494 0.00078258069698 0 
-0.078082703054 0.00086698349332 0 -0.078156083822 0.00094815751072 0 -0.078210026026 0.0010228676256 0 
-0.078283973038 0.0010890822159 0 -0.078439988196 0.0011419428047 0 -0.078778088093 0.0011739750626 0 
-0.079454615712 0.0011753370054 0 -0.080710291862 0.0011280612089 0 -0.082890555263 0.001014057314 0 
-0.086458586156 0.00080108531984 0 -0.091951012611 0.00047127823927 0 -0.099892288446 -8.6123072833e-06 0 
-0.11046398431 -0.00061723939143 0 -0.12337289006 -0.0012950635282 0 -0.1382009536 -0.0020027132705 0 
-0.15444380045 -0.0026871478185 0 -0.17159312963 -0.0033132783137 0 -0.18918792903 -0.0038500020746 0 
-0.20682130754 -0.0042777615599 0 -0.22414012253 -0.0045822220854 0 -0.24083547294 -0.0047567253932 0 
-0.25663542747 -0.0047972751781 0 -0.27129760385 -0.0047074649483 0 -0.28460425138 -0.0044884281233 0 
-0.29635798931 -0.0041547860019 0 -0.30637931824 -0.0037050878163 0 -0.31450387836 -0.0031741294079 0 
-0.32058152556 -0.0025367911439 0 -0.32447296381 -0.0018838449614 0 -0.3260512352 -0.0010973073076 0 
-0.32519212365 -0.0004276134714 0 -0.074073269963 5.0195390941e-05 0 -0.074978746474 0.00013992367894 0 
-0.075751923025 0.00024028906773 0 -0.076403416693 0.00033278303454 0 -0.076941713691 0.00043089876999 0 
-0.077375873923 0.00052389275515 0 -0.077714271843 0.00061903713504 0 -0.077966138721 0.00071018381277 0 
-0.078141503036 0.00080100621562 0 -0.078252725303 0.00088767166017 0 -0.078316263855 0.00097137113335 0 
-0.078355774283 0.0010488079861 0 -0.078408069909 0.0011184077011 0 -0.078530840576 0.0011752252467 0 
-0.078818030655 0.0012127136579 0 -0.07941685617 0.0012207352556 0 -0.080557703972 0.0011830019066 0 
-0.082573987544 0.0010801088065 0 -0.085924036801 0.00088209228124 0 -0.091148376465 0.00056631874759 0 
-0.098799787462 0.00010165070853 0 -0.10916359723 -0.00050269719213 0 -0.12196262926 -0.0011870695744 0 
-0.13677963614 -0.0019064580556 0 -0.15310077369 -0.0026083807461 0 -0.17039842904 -0.0032535910141 0 
-0.18819375336 -0.0038104057312 0 -0.20606325567 -0.0042570843361 0 -0.22364032269 -0.0045787920244 0 
-0.24060478806 -0.0047679417767 0 -0.25667542219 -0.0048202746548 0 -0.27160203457 -0.0047391094267 0 
-0.2851600945 -0.004525534343 0 -0.29714643955 -0.0041942880489 0 -0.30737638474 -0.0037439947482 0 
-0.31568104029 -0.0032099541277 0 -0.3219062686 -0.0025669566821 0 -0.32590922713 -0.0019071038114 0 
-0.32755997777 -0.0011111104395 0 -0.32673159242 -0.00043316773372 0 -0.07426482439 5.1346676628e-05 0 
-0.075171686709 0.00014311462292 0 -0.075945436954 0.00024577227305 0 -0.076596714556 0.00034036347643 0 
-0.077133975923 0.0004407101078 0 -0.077566303313 0.00053581391694 0 -0.077902011573 0.00063314690487 0 
-0.078150220215 0.00072641531006 0 -0.07832069695 0.00081946316641 0 -0.078425303102 0.00090836104937 0 
-0.078479573131 0.00099454761948 0 -0.078505635262 0.0010746270418 0 -0.078537754714 0.0011475241045 0 
-0.078629635274 0.0012081020977 0 -0.078869231045 0.0012508878717 0 -0.079395204782 0.0012651697034 0 
-0.080427154899 0.0012368113967 0 -0.082286685705 0.0011443794938 0 -0.085424907506 0.00096158182714 0 
-0.090384885669 0.00065921322675 0 -0.097742073238 0.00021220442432 0 -0.10787668824 -0.00038617331302 0 
-0.1205515787 -0.0010774036637 0 -0.13534615934 -0.0018073035171 0 -0.15173724294 -0.0025268928148 0 
-0.16917845607 -0.0031911486294 0 -0.18717208505 -0.0037684524432 0 -0.20527760684 -0.0042344252579 0 
-0.22311417758 -0.0045738341287 0 -0.24035000801 -0.0047780550085 0 -0.25669419765 -0.0048425607383 0 
-0.27188843489 -0.0047703762539 0 -0.28570130467 -0.0045625288039 0 -0.29792356491 -0.0042338771746 0 
-0.30836525559 -0.0037831156515 0 -0.3168528378 -0.0032460575458 0 -0.3232280612 -0.0025974030141 0 
-0.32734450698 -0.0019306042232 0 -0.32906901836 -0.0011250654934 0 -0.32827207446 -0.00043878561701 0 
-0.074458539486 5.2506282373e-05 0 -0.075366787612 0.0001463288354 0 -0.076141111553 0.00025129393907 0 
-0.076792150736 0.00034799604327 0 -0.077328369021 0.00045058422256 0 -0.077758856118 0.00054780795472 0 
-0.07809188962 0.00064733199542 0 -0.078336529434 0.00074272486381 0 -0.07850227505 0.00083798449486 0 
-0.07860057056 0.00092910148669 0 -0.078646086156 0.0010177278891 0 -0.078659594059 0.0011004015105 0 
-0.078672870994 0.001176481368 0 -0.078736081719 0.0012406988535 0 -0.078931152821 0.0012885536999 0 
-0.079388923943 0.0013088517589 0 -0.080317609012 0.0012895372929 0 -0.082027710974 0.0012071974343 0 
-0.08496017009 0.00103952887 0 -0.089661367238 0.00075016537448 0 -0.096723176539 0.00032249366632 0 
-0.10660398751 -0.00026798056206 0 -0.1191412583 -0.00096599472454 0 -0.13390205801 -0.0017052672338 0 
-0.15035389364 -0.002442532219 0 -0.16793359816 -0.0031259250827 0 -0.1861230135 -0.003724042559 0 
-0.20446431637 -0.0042097484693 0 -0.22256155312 -0.0045672948472 0 -0.24007096887 -0.004787042737 0 
-0.25669154525 -0.0048641148023 0 -0.27215665579 -0.0048012593761 0 -0.28622767329 -0.0045994129032 0 
-0.29868918657 -0.0042735612951 0 -0.30934581161 -0.0038224617019 0 -0.31801918149 -0.0032824520022 0 
-0.32454684377 -0.0026281413157 0 -0.32877868414 -0.0019543559756 0 -0.33057838678 -0.00113917829 0 
-0.32981353998 -0.00044446950778 0 -0.074654132128 5.3672301874e-05 0 -0.075563773513 0.00014956215455 0 
-0.076338663697 0.00025684662978 0 -0.076989464462 0.0003556717711 0 -0.077524617314 0.00046050958917 0 
-0.077953264117 0.00055986322695 0 -0.078283645213 0.00066157820402 0 -0.078524775803 0.00075910106534 0 
-0.078685924411 0.0008565550088 0 -0.078778192401 0.00094988849014 0 -0.078815422952 0.0010408993112 0 
-0.078817181289 0.00112614932 0 -0.078812904656 0.0012052737875 0 -0.078849464655 0.0012730923481 0 
-0.079002961516 0.0013257110259 0 -0.079396910965 0.0013520034263 0 -0.080227918923 0.0013411438558 0 
-0.081795699894 0.0012691464508 0 -0.084528841078 0.0011156589026 0 -0.088977128267 0.000840609835 0 
-0.095746099949 0.00043029614608 0 -0.10534708947 -0.00014998426195 0 -0.11773379147 -0.00085190229584 0 
-0.13244852424 -0.0016006431542 0 -0.14895138144 -0.0023550041951 0 -0.16666412354 -0.0030579580925 0 
-0.18504659832 -0.0036770680454 0 -0.20362325013 -0.0041830362752 0 -0.22198225558 -0.0045591327362 0 
-0.23976740241 -0.004794891458 0 -0.25666719675 -0.0048849242739 0 -0.27240642905 -0.0048317601904 0 
-0.28673899174 -0.0046361908317 0 -0.29944315553 -0.0043133501895 0 -0.31031793356 -0.003862044774 0 
-0.31917998195 -0.0033191500697 0 -0.3258625567 -0.002659183694 0 -0.33021175861 -0.0019783684984 0 
-0.33208799362 -0.0011534547666 0 -0.33135595918 -0.00045022185077 0 -0.074851714075 5.4846364947e-05 0 
-0.075762756169 0.00015281836386 0 -0.076538205147 0.00026243698085 0 -0.07718873769 0.00036339921644 0 
-0.077722817659 0.00047049712157 0 -0.078149609268 0.00057199248113 0 -0.078477345407 0.00067590072285 0 
-0.078715011477 0.00077556155156 0 -0.078871689737 0.00087519531371 0 -0.078958176076 0.00097074633231 0 
-0.078987553716 0.0010640899418 0 -0.078978307545 0.0011519046966 0 -0.078957661986 0.0012339401292 0 
-0.078969448805 0.0013053320581 0 -0.07908423245 0.0013624088606 0 -0.079418458045 0.0013946901308 0 
-0.080157414079 0.0013916695025 0 -0.081589668989 0.0013302922016 0 -0.084130644798 0.0011899364181 0 
-0.088330566883 0.00093071669107 0 -0.094805970788 0.00053553067846 0 -0.10411478579 -3.2497679058e-05 0 
-0.1163322106 -0.00073482614243 0 -0.13098651171 -0.0014936439693 0 -0.14753042161 -0.0022642479744 0 
-0.16537025571 -0.0029872711748 0 -0.18394286931 -0.0036274769809 0 -0.20275430381 -0.0041542621329 0 
-0.22137609124 -0.0045493119396 0 -0.23943911493 -0.0048015783541 0 -0.25662097335 -0.0049049737863 0 
-0.27263754606 -0.0048618698493 0 -0.287235111 -0.0046728621237 0 -0.30018532276 -0.0043532480486 0 
-0.31128144264 -0.0039018723182 0 -0.32033509016 -0.0033561610617 0 -0.32717514038 -0.0026905389968 0 
-0.331643641 -0.0020026497077 0 -0.33359780908 -0.0011678996962 0 -0.33289936185 -0.00045604453771 0 
-0.075051136315 5.6027736719e-05 0 -0.075963586569 0.00015609512047 0 -0.076739579439 0.00026806147071 0 
-0.077389828861 0.00037117331522 0 -0.077922806144 0.00048054120271 0 -0.078347727656 0.00058418809203 0 
-0.078672833741 0.00069029210135 0 -0.078907072544 0.00079209561227 0 -0.079059399664 0.00089389662025 0 
-0.079140298069 0.00099165993743 0 -0.079162232578 0.001087290002 0 -0.0791426301 0.0011776440078 0 
-0.079106748104 0.0012624689844 0 -0.079095467925 0.001337370486 0 -0.079174257815 0.0013986310223 0 
-0.079452596605 0.0014367887052 0 -0.080105006695 0.001441077562 0 -0.081408336759 0.0013902592473 0 
-0.083764657378 0.001262297621 0 -0.087721377611 0.0010194379138 0 -0.093904063106 0.00063914089696 0 
-0.10291004181 8.5735220637e-05 0 -0.11493806541 -0.0006153070135 0 -0.1295171082 -0.0013843758497 0 
-0.14609183371 -0.0021704209503 0 -0.16405236721 -0.0029138906393 0 -0.18281199038 -0.0035752828699 0 
-0.20185738802 -0.0041234120727 0 -0.2207428962 -0.0045378203504 0 -0.239085868 -0.0048070880584 0 
-0.25655263662 -0.0049242554232 0 -0.2728497684 -0.0048915841617 0 -0.28771576285 -0.0047094281763 0 
-0.30091547966 -0.004393259529 0 -0.31223621964 -0.0039419522509 0 -0.32148447633 -0.0033934935927 0 
-0.32848447561 -0.0027222156059 0 -0.33307436109 -0.0020272063557 0 -0.33510786295 -0.0011825176189 0 
-0.33444368839 -0.00046193951857 0 -0.0752524212 5.7217621361e-05 0 -0.076166279614 0.00015939465084 0 
-0.076942816377 0.00027372455224 0 -0.077592760324 0.00037899921881 0 -0.07812461257 0.0004906495451 0 
-0.078547641635 0.00059645809233 0 -0.078870102763 0.00070476444671 0 -0.079100944102 0.00080871477257 0 
-0.07924900949 0.00091267767129 0 -0.079324513674 0.0010126455454 0 -0.079339370131 0.0011105302256 0 
-0.079309992492 0.0012033911189 0 -0.07925991714 0.0012909123907 0 -0.079227134585 0.0013692436041 0 
-0.079272478819 0.001434462145 0 -0.079498529434 0.0014783487422 0 -0.080069668591 0.0014894834021 0 
-0.08125051111 0.0014490894973 0 -0.083429731429 0.0013327925699 0 -0.087149180472 0.0011066978332 0 
-0.093041263521 0.00074075424345 0 -0.10173712671 0.00020471790049 0 -0.11355227232 -0.00049330311595 0 
-0.12804155052 -0.0012730607996 0 -0.14463657141 -0.0020734858699 0 -0.16271090508 -0.0028377843555 0 
-0.18165411055 -0.0035204363521 0 -0.20093247294 -0.0040904264897 0 -0.22008255124 -0.0045246193185 0 
-0.23870746791 -0.0048113795929 0 -0.25646194816 -0.004942746833 0 -0.27304294705 -0.0049208849669 0 
-0.28818082809 -0.0047458829358 0 -0.30163347721 -0.0044333827682 0 -0.31318217516 -0.0039822887629 0 
-0.32262799144 -0.0034311534837 0 -0.32979056239 -0.002754220739 0 -0.33450382948 -0.0020520447288 0 
-0.33661812544 -0.0011973123765 0 -0.33598893881 -0.00046790827764 0 -0.075455479324 5.8415833337e-05 0 
-0.076370753348 0.0001627158781 0 -0.077147811651 0.00027942506131 0 -0.077797435224 0.00038687480264 0 
-0.078328132629 0.00050082046073 0 -0.078749239445 0.00060879922239 0 -0.079069055617 0.00071931618731 0 
-0.079296514392 0.00082541431766 0 -0.079440392554 0.00093153869966 0 -0.07951066643 0.0010336968116 0 
-0.079518765211 0.001133816666 0 -0.079480163753 0.0012291376479 0 -0.079416833818 0.0013192911865 0 
-0.0793639943 0.0014009396546 0 -0.079378291965 0.0014699534513 0 -0.079555399716 0.0015193518484 0 
-0.080050379038 0.0015369828325 0 -0.081114865839 0.0015067502391 0 -0.083124734461 0.0014015128836 0 
-0.086612887681 0.0011924317805 0 -0.092218719423 0.00083992868895 0 -0.10059957206 0.00032446091063 0 
-0.11217590421 -0.00036862137495 0 -0.12656097114 -0.0011600090656 0 -0.1431658566 -0.0019734222442 0 
-0.16134630144 -0.0027588971425 0 -0.18046945333 -0.0034629229922 0 -0.19997948408 -0.0040552373976 0 
-0.21939489245 -0.0045096836984 0 -0.23830370605 -0.0048144129105 0 -0.25634869933 -0.0049604303204 0 
-0.2732168138 -0.0049497564323 0 -0.2886300683 -0.0047822208144 0 -0.3023391664 -0.0044736168347 0 
-0.31411913037 -0.0040228846483 0 -0.32376557589 -0.0034691460896 0 -0.33109328151 -0.0027865599841 0 
-0.33593204618 -0.002077170182 0 -0.33812853694 -0.0012122875778 0 -0.3375351429 -0.00047395241563 0 
-0.075660303235 5.9623154812e-05 0 -0.076576992869 0.00016606040299 0 -0.077354565263 0.0002851660829 0 
-0.078003831208 0.00039480382111 0 -0.078533351421 0.00051105971215 0 -0.078952513635 0.00062121771043 0 
-0.079269662499 0.00073395686923 0 -0.079493753612 0.00084220379358 0 -0.079633511603 0.00095049658557 0 
-0.079698681831 0.0010548289865 0 -0.07970032841 0.0011571812211 0 -0.07965297997 0.0012549082749 0 
-0.07957726717 0.0013476711465 0 -0.079505711794 0.0014324986842 0 -0.079491168261 0.001505248365 0 
-0.079622514546 0.0015598530881 0 -0.080046162009 0.0015838997206 0 -0.081000253558 0.0015632702271 0 
-0.082848474383 0.0014692132827 0 -0.086111441255 0.0012764150742 0 -0.091436684132 0.00093834049767 0 
-0.099503971636 0.00044241111027 0 -0.110807769 -0.00024317772477 0 -0.1250769347 -0.0010441931663 0 
-0.14168091118 -0.0018704080721 0 -0.15995901823 -0.0026768494863 0 -0.17925815284 -0.0034027211368 0 
-0.19899839163 -0.0040176925249 0 -0.21867977083 -0.0044929655269 0 -0.23787437379 -0.0048161209561 0 
-0.25621265173 -0.0049772737548 0 -0.27337116003 -0.0049781701528 0 -0.28906333447 -0.0048184297048 0 
-0.30303239822 -0.0045139547437 0 -0.31504702568 -0.004063739907 0 -0.32489714026 -0.003507474903 0 
-0.33239263296 -0.0028192384634 0 -0.33735895157 -0.0021025876049 0 -0.33963912725 -0.0012274463661 0 
-0.33908224106 -0.00048007321311 0 -0.075866833329 6.0839527578e-05 0 -0.076784931123 0.00016942812363 0 
-0.077563002706 0.00029094755882 0 -0.078211896122 0.00040278627421 0 -0.07874020189 0.00052136735758 0 
-0.07915738225 0.00063371361466 0 -0.079471848905 0.00074868748197 0 -0.079692572355 0.00085908407345 0 
-0.07982826978 0.00096955435583 0 -0.079888470471 0.0010760446312 0 -0.079883903265 0.0011806333205 0 
-0.07982826978 0.0012807105668 0 -0.079740963876 0.001376076485 0 -0.079651966691 0.0014639374567 0 
-0.07961063087 0.0015404064907 0 -0.07969930768 0.0015998802846 0 -0.080056168139 0.0016303730663 0 
-0.080905944109 0.0016186606372 0 -0.082599878311 0.0015362249687 0 -0.08564466238 0.0013585188426 0 
-0.090693354607 0.0010369752999 0 -0.098445042968 0.00055747723673 0 -0.1094571799 -0.0001183166969 0 
-0.12359252572 -0.00092477636645 0 -0.14018239081 -0.0017647100613 0 -0.15854953229 -0.0025914325379 0 
-0.17802028358 -0.0033398480155 0 -0.19798912108 -0.0039777029306 0 -0.21793699265 -0.004474433139 0 
-0.23741924763 -0.0048164580949 0 -0.25605359674 -0.0049932533875 0 -0.27350577712 -0.005006108433 0 
-0.28948038816 -0.0048544998281 0 -0.30371299386 -0.0045543941669 0 -0.31596565247 -0.0041048568673 0 
-0.32602256536 -0.0035461443476 0 -0.33368849754 -0.0028522612993 0 -0.33878451586 -0.002128301654 0 
-0.34114983678 -0.0012427918846 0 -0.34063026309 -0.00048627206706 0 -0.076075032353 6.2065257225e-05 0 
-0.076994553208 0.00017282018962 0 -0.077773109078 0.00029677117709 0 -0.078421592712 0.00041082466487 0 
-0.078948654234 0.0005317464238 0 -0.079363815486 0.00064629095141 0 -0.07967557013 0.00076351192547 0 
-0.079892933369 0.00087606045417 0 -0.080024600029 0.00098871672526 0 -0.080079950392 0.0010973509634 0 
-0.08006940037 0.0012041771552 0 -0.080005906522 0.0013065532548 0 -0.079907715321 0.0014045077842 0 
-0.07980248332 0.0014952651691 0 -0.079736217856 0.001575408387 0 -0.079785197973 0.0016394355334 0 
-0.080079525709 0.0016763004242 0 -0.08083102107 0.0016728909686 0 -0.082377836108 0.0016021422343 0 
-0.08521207422 0.0014386749826 0 -0.089988395572 0.0011346426327 0 -0.097422920167 0.00067093776306 0 
-0.10812843591 7.3303717727e-06 0 -0.12210971862 -0.00080234266352 0 -0.13867107034 -0.0016563859535 0 
-0.15711836517 -0.002502793679 0 -0.17675597966 -0.0032743187621 0 -0.19695165753 -0.0039352644235 0 
-0.217166394 -0.0044540660456 0 -0.23693813384 -0.0048154029064 0 -0.25587129593 -0.0050083491951 0 
-0.27362045646 -0.0050335577689 0 -0.28988105059 -0.0048904237337 0 -0.3043807745 -0.0045949323103 0 
-0.31687495112 -0.0041462364607 0 -0.32714176178 -0.0035851581488 0 -0.33498087525 -0.0028856336139 0 
-0.34020873904 -0.0021543176845 0 -0.34266072512 -0.0012583275093 0 -0.34217920899 -0.00049255043268 0 
-0.076284863055 6.3300300098e-05 0 -0.07720579952 0.00017623708118 0 -0.077984817326 0.00030263734516 0 
-0.078632868826 0.00041892009904 0 -0.079158648849 0.00054219772574 0 -0.079571761191 0.00065895158332 0 
-0.079880781472 0.00077843130566 0 -0.080094777048 0.00089313637 0 -0.080222442746 0.0010079854401 0 
-0.080273039639 0.0011187540367 0 -0.080256700516 0.0012278156355 0 -0.080185733736 0.0013324483298 0 
-0.080077290535 0.0014329694677 0 -0.079956933856 0.0015265037073 0 -0.079867467284 0.0016102595255 0 
-0.079879537225 0.0016785530606 0 -0.080115325749 0.0017216769047 0 -0.080774351954 0.0017259888118 0 
-0.082181081176 0.001666879165 0 -0.084812559187 0.0015168037498 0 -0.089321650565 0.0012309536105 0 
-0.096438579261 0.0007827145746 0 -0.10682552308 0.00013422706979 0 -0.12062966079 -0.00067687866976 0 
-0.13714799285 -0.0015455929097 0 -0.15566618741 -0.002410903573 0 -0.17546549439 -0.0032061222009 0 
-0.1958860606 -0.003890332533 0 -0.21636785567 -0.0044318232685 0 -0.2364308387 -0.0048129223287 0 
-0.25566551089 -0.005022531841 0 -0.27371495962 -0.005060500931 0 -0.29026511312 -0.0049261888489 0 
-0.30503562093 -0.0046355659142 0 -0.31777477264 -0.0041878786869 0 -0.3282546699 -0.0036245202646 0 
-0.33626964688 -0.0029193595983 0 -0.34163153172 -0.0021806401201 0 -0.34417170286 -0.0012740560342 0 
-0.34372907877 -0.00049890956143 0 -0.07649628818 6.4544838096e-05 0 -0.077418640256 0.00017967983149 0 
-0.078198105097 0.0003085474018 0 -0.078845702112 0.00042707493412 0 -0.07937014848 0.00055272347527 0 
-0.07978118211 0.0006716994103 0 -0.080087430775 0.00079344894039 0 -0.080298043787 0.00091031799093 0 
-0.080421723425 0.0010273645166 0 -0.080467656255 0.0011402647942 0 -0.080445706844 0.0012515541166 0 
-0.08036762476 0.001358415815 0 -0.080249488354 0.0014614691027 0 -0.080115050077 0.0015576926526 0 
-0.08000395447 0.0016449703835 0 -0.07998175174 0.0017173085362 0 -0.080162748694 0.0017665135674 0 
-0.080734923482 0.0017780780327 0 -0.082008391619 0.0017304287758 0 -0.084445104003 0.0015930093359 0 
-0.088692784309 0.0013257975224 0 -0.095493495464 0.00089247437427 0 -0.1055528 0.00026241363958 0 
-0.11915294826 -0.00054837012431 0 -0.13561403751 -0.0014325346565 0 -0.15419371426 -0.002315729158 0 
-0.17414906621 -0.0031352033839 0 -0.19479234517 -0.0038428613916 0 -0.21554122865 -0.0044076386839 0 
-0.23589718342 -0.0048089805059 0 -0.25543606281 -0.0050357617438 0 -0.273789078 -0.0050869183615 0 
-0.29063239694 -0.0049617793411 0 -0.30567732453 -0.0046762893908 0 -0.31866496801 -0.0042297816835 0 
-0.32936117053 -0.0036642332561 0 -0.33755481243 -0.0029534432106 0 -0.34305289388 -0.0022072729189 0 
-0.34568279982 -0.0012899803696 0 -0.34527987242 -0.00050535070477 0 -0.076709270477 6.5798958531e-05 0 
-0.077633030713 0.00018314919726 0 -0.078412935138 0.00031450227834 0 -0.079060032964 0.00043529085815 0 
-0.079583123326 0.00056332541863 0 -0.079992026091 0.00068453745916 0 -0.080295465887 0.00080856709974 0 
-0.080502688885 0.00092761043925 0 -0.080622397363 0.0010468572145 0 -0.080663740635 0.0011618923163 0 
-0.080636322498 0.0012753972551 0 -0.080551438034 0.0013844744535 0 -0.080424144864 0.0014900139067 0 
-0.080276563764 0.0015888703056 0 -0.080145291984 0.0016795522533 0 -0.080091267824 0.0017557769315 0 
-0.080220974982 0.0018108241493 0 -0.080711700022 0.0018292840105 0 -0.081858411431 0.0017927959561 0 
-0.084108576179 0.0016673995415 0 -0.088100649416 0.0014191326918 0 -0.09458899498 0.00099965604022 0 
-0.10431410372 0.00039179887972 0 -0.11768056452 -0.00041653719381 0 -0.13407017291 -0.0013175350614 0 
-0.15270209312 -0.0022172168829 0 -0.17280700803 -0.0030614729039 0 -0.19367064536 -0.0037928239908 0 
-0.21468640864 -0.004381429404 0 -0.23533697426 -0.004803545773 0 -0.25518268347 -0.0050479923375 0 
-0.27384263277 -0.0051127891056 0 -0.29098272324 -0.0049971765839 0 -0.30630576611 -0.0047170962207 0 
-0.31954541802 -0.0042719421908 0 -0.33046117425 -0.003704299219 0 -0.33883628249 -0.0029878877103 0 
-0.34447282553 -0.0022342202719 0 -0.34719401598 -0.0013061029604 0 -0.34683156013 -0.00051187508507 0 
-0.076923780143 6.706291606e-05 0 -0.077848948538 0.00018664609524 0 -0.078629262745 0.00032050331356 0 
-0.079275839031 0.00044357008301 0 -0.079797521234 0.00057400594233 0 -0.080204255879 0.00069746939698 0 
-0.080504849553 0.00082378956722 0 -0.080708652735 0.000945020176 0 -0.080824397504 0.0010664693546 0 
-0.080861210823 0.0011836491758 0 -0.080828465521 0.0012993548298 0 -0.080737061799 0.0014106504386 0 
-0.080601081252 0.0015186218079 0 -0.080441229045 0.0016200972022 0 -0.080291129649 0.0017140379641 0 
-0.080207571387 0.0017941045808 0 -0.080289296806 0.0018546591746 0 -0.08070372045 0.0018799675163 0 
-0.081730037928 0.0018540060846 0 -0.083801813424 0.0017408948625 0 -0.087544262409 0.0015107004438 0 
-0.093725331128 0.0011065552244 0 -0.10311705619 0.00051918200916 0 -0.11621064693 -0.00028379799915 0 
-0.13251779974 -0.0011992073851 0 -0.15119227767 -0.0021155572031 0 -0.17143957317 -0.002984478604 0 
-0.19252096117 -0.0037401888985 0 -0.21380327642 -0.0043530329131 0 -0.23475001752 -0.0047965683043 0 
-0.25490516424 -0.0050591593608 0 -0.27387535572 -0.0051380838268 0 -0.2913158536 -0.0050323568285 0 
-0.30692073703 -0.0047579761595 0 -0.32041603327 -0.0043143569492 0 -0.33155462146 -0.0037447188515 0 
-0.34011399746 -0.0030226961244 0 -0.34589123726 -0.0022614854388 0 -0.34870532155 -0.0013224267168 0 
-0.34838417172 -0.00051848375006 0 -0.077139772475 6.8336994445e-05 0 -0.07806634903 0.00019017129671 0 
-0.078847050667 0.00032655181712 0 -0.079493068159 0.00045191438403 0 -0.080013304949 0.00058476743288 0 
-0.080417826772 0.00071049825056 0 -0.080715544522 0.00083911977708 0 -0.080915905535 0.0009625517414 0 
-0.081027686596 0.001086206059 0 -0.081060022116 0.0012055427069 0 -0.081022061408 0.0013234348735 0 
-0.080924391747 0.0014369578566 0 -0.080780178308 0.0015473068925 0 -0.080608829856 0.00165140233 0 
-0.080441206694 0.0017484519631 0 -0.080330207944 0.0018323527183 0 -0.080367207527 0.0018980553141 0 
-0.080710142851 0.0019302597502 0 -0.081622600555 0.0019140797667 0 -0.083523802459 0.001813795534 0 
-0.087023802102 0.0016003834317 0 -0.092900566757 0.0012141887564 0 -0.10195443034 0.00064358813688 0 
-0.1147543937 -0.00015155706205 0 -0.13096012175 -0.0010766526684 0 -0.14966462553 -0.0020110071637 0 
-0.17004704475 -0.0029040183872 0 -0.19134317338 -0.0036849665921 0 -0.21289166808 -0.0043223658577 0 
-0.23413605988 -0.0047880169004 0 -0.25460329652 -0.0050692223012 0 -0.27388703823 -0.0051627820358 0 
-0.291631639 -0.0050673051737 0 -0.30752208829 -0.0047989226878 0 -0.32127663493 -0.004357024096 0 
-0.33264136314 -0.0037854944821 0 -0.34138789773 -0.0030578726437 0 -0.34730812907 -0.0022890730761 0 
-0.35021671653 -0.0013389543165 0 -0.34993770719 -0.00052517786389 0 -0.07735722512 6.9621506555e-05 0 
-0.078285202384 0.00019372544193 0 -0.07906627655 0.00033264906961 0 -0.079711697996 0.00046032530372 0 
-0.08023045212 0.00059561192757 0 -0.080632708967 0.00072362611536 0 -0.080927498639 0.00085456052329 0 
-0.081124395132 0.00098020758014 0 -0.081232205033 0.0011060705874 0 -0.081260100007 0.0012275754707 0 
-0.081217050552 0.0013476413442 0 -0.081113323569 0.0014633978717 0 -0.080961309373 0.0015760725364 0 
-0.08077916503 0.0016827803338 0 -0.080595225096 0.0017827947158 0 -0.080458723009 0.0018704904942 0 
-0.080454103649 0.0019409990637 0 -0.080730095506 0.0019800253212 0 -0.081535167992 0.0019729551859 0 
-0.083273455501 0.0018855690723 0 -0.086538881063 0.0016880643088 0 -0.092114724219 0.0013209112221 0 
-0.10082728416 0.0007667367463 0 -0.11331536621 -1.7958927856e-05 0 -0.12939880788 -0.00095067120856 0 
-0.14811967313 -0.0019035838777 0 -0.16862976551 -0.0028202657122 0 -0.19013732672 -0.0036271696445 0 
-0.21195147932 -0.0042894277722 0 -0.23349492252 -0.0047778752632 0 -0.25427681208 -0.0050781634636 0 
-0.27387744188 -0.0051868674345 0 -0.29192981124 -0.0051020127721 0 -0.30810964108 -0.004839931149 0 
-0.32212710381 -0.0043999445625 0 -0.3337213397 -0.0038266293705 0 -0.3426579237 -0.0030934214592 0 
-0.34872350097 -0.002316987142 0 -0.35172817111 -0.0013556889025 0 -0.35149213672 -0.00053195876535 0 
-0.077576100826 7.0916852565e-05 0 -0.078505478799 0.00019730930217 0 -0.079286895692 0.0003387965553 0 
-0.079931691289 0.00046880464652 0 -0.080448910594 0.00060654222034 0 -0.080848865211 0.00073685578536 0 
-0.081140682101 0.0008701159386 0 -0.081334069371 0.00099799153395 0 -0.081437923014 0.0011260693427 0 
-0.081461399794 0.0012497524731 0 -0.081413350999 0.0013719842536 0 -0.081303775311 0.0014899777016 0 
-0.081144325435 0.0016049362021 0 -0.080952040851 0.0017142426223 0 -0.080752916634 0.0018170957919 0 
-0.080592676997 0.0019085344393 0 -0.080549366772 0.0019835359417 0 -0.080762669444 0.0020292783156 0 
-0.081466592848 0.0020306715742 0 -0.08304952085 0.0019561613444 0 -0.08608841151 0.0017736478476 0 
-0.09136787802 0.0014263831545 0 -0.099736593664 0.00088840280659 0 -0.1118978709 0.00011737435852 0 
-0.12783484161 -0.00082116236445 0 -0.14655825496 -0.0017934211064 0 -0.16718815267 -0.0027331616729 0 
-0.18890352547 -0.0035667780321 0 -0.21098266542 -0.0042541674338 0 -0.23282641172 -0.0047661019489 0 
-0.2539255321 -0.005085951183 0 -0.27384635806 -0.0052103162743 0 -0.29221022129 -0.0051364656538 0 
-0.30868321657 -0.0048809940927 0 -0.32296729088 -0.0044431169517 0 -0.33479446173 -0.0038681249134 0 
-0.34392401576 -0.0031293469947 0 -0.35013726354 -0.0023452320602 0 -0.3532397151 -0.0013726333855 0 
-0.35304751992 -0.00053882756038 0 -0.07779636234 7.2223388997e-05 0 -0.078727141023 0.00020092348859 0 
-0.079508885741 0.00034499567118 0 -0.080153010786 0.00047735383851 0 -0.080668650568 0.00061756046489 0 
-0.081066243351 0.00075018923962 0 -0.081355057657 0.00088578922441 0 -0.081544905901 0.0010159057565 0 
-0.081644773483 0.0011462068651 0 -0.081663861871 0.0012720755767 0 -0.081610918045 0.001396470936 0 
-0.081495650113 0.001516698394 0 -0.081329129636 0.0016339112772 0 -0.081127256155 0.0017457884969 0 
-0.080913998187 0.0018513826653 0 -0.080731660128 0.0019464808283 0 -0.080652408302 0.0020257201977 0 
-0.08080702275 0.002078006044 0 -0.081415846944 0.0020873178728 0 -0.082850761712 0.0020255281124 0 
-0.085671447217 0.0018571866676 0 -0.090659864247 0.0015304482076 0 -0.098684161901 0.0010082470253 0 
-0.11050613225 0.0002546281612 0 -0.12626877427 -0.00068801845191 0 -0.14498104155 -0.001680687652 0 
-0.16572275758 -0.0026426482946 0 -0.18764187396 -0.0035037407652 0 -0.20998516679 -0.0042165373452 0 
-0.23213033378 -0.0047526420094 0 -0.25354927778 -0.0050925551914 0 -0.27379357815 -0.0052330964245 0 
-0.29247266054 -0.0051706507802 0 -0.30924269557 -0.0049221012741 0 -0.32379713655 -0.0044865398668 0 
-0.33586061001 -0.0039099827409 0 -0.34518614411 -0.0031656529754 0 -0.35154941678 -0.0023738113232 0 
-0.35475128889 -0.0013897906756 0 -0.3546037972 -0.00054578541312 0 -0.078017994761 7.3541537859e-05 0 
-0.078950159252 0.00020456883067 0 -0.079732201993 0.00035124807619 0 -0.080375626683 0.00048597494606 0 
-0.080889642239 0.00062866986264 0 -0.081284828484 0.00076362962136 0 -0.081570580602 0.00090158527019 0 
-0.081756860018 0.0010339545552 0 -0.081852734089 0.0011664908379 0 -0.081867434084 0.0012945509516 0 
-0.081809669733 0.0014211146627 0 -0.081688866019 0.0015435692621 0 -0.081515587866 0.0016630226746 0 
-0.081304654479 0.0017774328589 0 -0.081078231335 0.0018857039977 0 -0.080875270069 0.0019843541086 0 
-0.080762669444 0.0020676448476 0 -0.08086232841 0.0021262459923 0 -0.081381864846 0.0021430475172 0 
-0.082675851882 0.0020937046502 0 -0.085286922753 0.0019388124347 0 -0.089989960194 0.0016330552753 0 
-0.097671605647 0.0011257189326 0 -0.10914459825 0.00039365389966 0 -0.12470109761 -0.00055106618674 0 
-0.14338871837 -0.0015656563919 0 -0.16423432529 -0.0025486599188 0 -0.18635250628 -0.0034379628487 0 
-0.20895896852 -0.0041764951311 0 -0.23140653968 -0.0047374148853 0 -0.2531477809 -0.0050979424268 0 
-0.27371886373 -0.0052551673725 0 -0.29271695018 -0.0052045504563 0 -0.30978786945 -0.0049632382579 0 
-0.32461643219 -0.004530210048 0 -0.33691969514 -0.0039522019215 0 -0.34644421935 -0.0032023424283 0 
-0.35295990109 -0.0024027284235 0 -0.35626292229 -0.0014071634505 0 -0.35616099834 -0.00055283337133 0 
-0.078240953386 7.4871641118e-05 0 -0.079174503684 0.00020824608509 0 -0.079956829548 0.00035755522549 0 
-0.08059950918 0.0004946696572 0 -0.081111848354 0.00063987280009 0 -0.081504575908 0.00077717954991 0 
-0.081787228584 0.000917507743 0 -0.081969887018 0.001052141306 0 -0.082061752677 0.0011869269656 0 
-0.082072079182 0.001317182905 0 -0.08200956136 0.0014459256781 0 -0.081883355975 0.0015705962433 0 
-0.081703610718 0.001692291582 0 -0.081484079361 0.0018091860693 0 -0.08124537766 0.0019201075193 0 
-0.081023178995 0.0020221737213 0 -0.080879636109 0.0021094218828 0 -0.080927848816 0.0021740284283 0 
-0.081363685429 0.0021981189493 0 -0.082523569465 0.0021607077215 0 -0.084933720529 0.0020190977957 0 
-0.089357085526 0.0017340582563 0 -0.096699871123 0.0012418387923 0 -0.10781933367 0.00053261651192 0 
-0.12313114107 -0.00041144306306 0 -0.14178229868 -0.0014477056684 0 -0.16272376478 -0.0024512503296 0 
-0.18503552675 -0.0033691474237 0 -0.20790404081 -0.0041340081953 0 -0.2306548357 -0.0047202967107 0 
-0.25272086263 -0.0051020756364 0 -0.27362197638 -0.0052764797583 0 -0.29294285178 -0.0052381455898 0 
-0.31031858921 -0.0050043896772 0 -0.3254250586 -0.0045741233043 0 -0.33797165751 -0.0039947829209 0 
-0.34769815207 -0.0032394179143 0 -0.35436874628 -0.0024319868535 0 -0.35777458549 -0.0014247541549 0 
-0.35771915317 -0.00055997259915 0 -0.078465223312 7.6214062574e-05 0 -0.079400151968 0.00021195616864 0 
-0.080182723701 0.00036391874892 0 -0.080824628472 0.00050344021292 0 -0.081335246563 0.00065117230406 0 
-0.081725463271 0.00079084240133 0 -0.082004956901 0.00093356118305 0 -0.0821839571 0.0010704708984 0 
-0.082271799445 0.001207522233 0 -0.08227775991 0.0013399785385 0 -0.082210533321 0.0014709156239 0 
-0.082079052925 0.0015977905132 0 -0.081893086433 0.0017217401182 0 -0.081665419042 0.0018410669873 0 
-0.081415221095 0.0019546416588 0 -0.081175103784 0.0020599726122 0 -0.08100283891 0.0021511632949 0 
-0.081003002822 0.0022214050405 0 -0.081360392272 0.0022528050467 0 -0.082393057644 0.0022265703883 0 
-0.084610790014 0.0020987589378 0 -0.088761009276 0.0018332530744 0 -0.095768153667 0.0013587524882 0 
-0.10653094947 0.00066895945929 0 -0.12156330049 -0.0002714653092 0 -0.14016392827 -0.0013254199876 0 
-0.16119144857 -0.0023506341968 0 -0.18369106948 -0.0032969270833 0 -0.20682020485 -0.0040890579112 0 
-0.22987501323 -0.0047011645511 0 -0.25226825476 -0.0051049157046 0 -0.27350273728 -0.0052969856188 0 
-0.29315018654 -0.0052714152262 0 -0.31083464622 -0.0050455415621 0 -0.32622289658 -0.0046182749793 0 
-0.33901634812 -0.0040377252735 0 -0.34894794226 -0.0032768826932 0 -0.35577586293 -0.0024615905713 0 
-0.35928627849 -0.0014425655827 0 -0.35927823186 -0.00056720426073 0 -0.078690767288 7.7569085988e-05 0 
-0.079627066851 0.00021569995442 0 -0.080409869552 0.00037034004345 0 -0.081050947309 0.00051228853408 0 
-0.081559792161 0.00066257076105 0 -0.081947445869 0.00080462108599 0 -0.08222373575 0.00094974884996 0 
-0.082399040461 0.0010889469413 0 -0.082482822239 0.0012282807147 0 -0.082484424114 0.001362942392 0 
-0.082412540913 0.0014960898552 0 -0.082275897264 0.0016251581255 0 -0.082083947957 0.001751376316 0 
-0.081848546863 0.0018730838783 0 -0.081587597728 0.0019893178251 0 -0.081330798566 0.0020977617241 0 
-0.081131845713 0.0021928835195 0 -0.081087253988 0.0022683844436 0 -0.081371158361 0.0023070960306 0 
-0.082283556461 0.0022912626155 0 -0.084317147732 0.0021776382346 0 -0.088201932609 0.0019305004971 0 
-0.094875484705 0.0014760402264 0 -0.10527508706 0.00080326013267 0 -0.12000608444 -0.00013086519903 0 
-0.13853600621 -0.0011987515027 0 -0.15963758528 -0.0022469391115 0 -0.18231920898 -0.0032212922815 0 
-0.20570732653 -0.0040416554548 0 -0.22906689346 -0.0046799806878 0 -0.25178974867 -0.0051064444706 0 
-0.27336087823 -0.0053166626021 0 -0.29333868623 -0.0053043481894 0 -0.31133586168 -0.0050866873935 0 
-0.3270098269 -0.0046626646072 0 -0.34005370736 -0.0040810317732 0 -0.35019350052 -0.0033147409558 0 
-0.35718125105 -0.0024915440008 0 -0.36079797149 -0.0014606008772 0 -0.36083820462 -0.00057452981127 0 
-0.078917570412 7.8936987848e-05 0 -0.07985522598 0.00021947843197 0 -0.080638229847 0.00037682065158 0 
-0.081278450787 0.00052121683257 0 -0.081785470247 0.00067407079041 0 -0.082170501351 0.00081851897994 0 
-0.082443535328 0.00096607429441 0 -0.082615107298 0.0011075742077 0 -0.082694806159 0.0012492069509 0 
-0.082692049444 0.0013860805193 0 -0.082615546882 0.0015214536106 0 -0.08247384429 0.001652707113 0 
-0.082276105881 0.0017812058795 0 -0.082033365965 0.0019052475691 0 -0.081762298942 0.0020241406746 0 
-0.081489980221 0.0021355550271 0 -0.081266231835 0.0022345737088 0 -0.081179998815 0.0023149759509 0 
-0.081395074725 0.0023609169293 0 -0.082194022834 0.0023547534365 0 -0.084051646292 0.0022553568706 0 
-0.087679192424 0.0020256470889 0 -0.094022251666 0.0015923479805 0 -0.10405337065 0.00093659176491 0 
-0.11846289784 1.1836975318e-05 0 -0.1368996948 -0.001068208483 0 -0.15806262195 -0.0021401979029 0 
-0.18092018366 -0.0031423175242 0 -0.20456533134 -0.0039917989634 0 -0.22823032737 -0.0046567227691 0 
-0.25128507614 -0.0051066400483 0 -0.2731961906 -0.0053354916163 0 -0.29350820184 -0.005336931441 0 
-0.31182211637 -0.0051278211176 0 -0.32778567076 -0.0047072903253 0 -0.34108361602 -0.0041247052141 0 
-0.35143476725 -0.0033529966604 0 -0.35858488083 -0.0025218517985 0 -0.36230969429 -0.0014788628323 0 
-0.36239913106 -0.00058195058955 0 -0.079145595431 8.0318044638e-05 0 -0.080084614456 0.00022329259082 0 
-0.080867789686 0.00038336208672 0 -0.081507101655 0.00053022737848 0 -0.082012251019 0.00068567489507 0 
-0.082394607365 0.00083253940102 0 -0.082664325833 0.00098254077602 0 -0.082832120359 0.0011263571214 0 
-0.082907706499 0.0012703047832 0 -0.082900591195 0.0014093993232 0 -0.082819491625 0.0015470115468 0 
-0.082672834396 0.0016804467887 0 -0.08246947825 0.0018112338148 0 -0.08221975714 0.0019375734264 0 
-0.081939168274 0.0020591157954 0 -0.081652410328 0.0021733790636 0 -0.081405580044 0.0022762413137 0 
-0.081280648708 0.0023612247314 0 -0.081431269646 0.0024142714683 0 -0.082123346627 0.00241709291 0 
-0.083813026547 0.0023318717722 0 -0.087191827595 0.0021186252125 0 -0.093208655715 0.0017074423376 0 
-0.10286723077 0.0010685699526 0 -0.11693801731 0.00015694870672 0 -0.13525566459 -0.00093358004233 0 
-0.15646712482 -0.0020305295475 0 -0.17949424684 -0.003059920622 0 -0.20339421928 -0.0039394591004 0 
-0.22736518085 -0.0046313405037 0 -0.25075405836 -0.0051054642536 0 -0.27300843596 -0.0053534479812 0 
-0.29365849495 -0.0053691444919 0 -0.31229320168 -0.005168935284 0 -0.32855030894 -0.0047521484084 0 
-0.34210598469 -0.0041687483899 0 -0.35267168283 -0.0033916530665 0 -0.35998669267 -0.0025525183883 0 
-0.36382141709 -0.0014973544748 0 -0.36396101117 -0.00058946816716 0 -0.079374827445 8.1712547399e-05 0 
-0.080315187573 0.00022714346414 0 -0.081098511815 0.00038996589137 0 -0.081736877561 0.00053932255832 0 
-0.082240097225 0.00069738581078 0 -0.082619726658 0.00084668607451 0 -0.082886077464 0.00099915196188 0 
-0.083050049841 0.0011453006882 0 -0.083121493459 0.0012915784027 0 -0.083110012114 0.0014329056721 0 
-0.083024345338 0.0015727683203 0 -0.08287281543 0.0017083878629 0 -0.082663998008 0.0018414653605 0 
-0.082407623529 0.0019700799603 0 -0.082118034363 0.0020942494739 0 -0.08181784302 0.0022112680599 0 
-0.08154951036 0.0023178935517 0 -0.081388644874 0.0024071948137 0 -0.081478901207 0.0024671652354 0 
-0.082070462406 0.0024783804547 0 -0.083600021899 0.0024071652442 0 -0.086738884449 0.0022094764281 0 
-0.092434585094 0.0018211839488 0 -0.10171870887 0.0011987370672 0 -0.1154358387 0.00030462443829 0 
-0.13360416889 -0.00079469126649 0 -0.15485148132 -0.0019181194948 0 -0.17804175615 -0.0029740158934 0 
-0.20219400525 -0.0038845785893 0 -0.2264713496 -0.0046037831344 0 -0.25019648671 -0.0051028616726 0 
-0.27279743552 -0.0053705042228 0 -0.29378938675 -0.0054009617306 0 -0.3127489388 -0.0052100210451 0 
-0.32930359244 -0.004797232803 0 -0.34312072396 -0.0042131622322 0 -0.35390418768 -0.0034307132009 0 
-0.36138668656 -0.002583547961 0 -0.36533311009 -0.001516078366 0 -0.36552378535 -0.00059708376648 0 
-0.07960523665 8.3120808995e-05 0 -0.080546945333 0.0002310321288 0 -0.081330373883 0.00039663375355 0 
-0.081967748702 0.00054850470042 0 -0.082468986511 0.00070920633152 0 -0.082845829427 0.0008609626675 0 
-0.083108760417 0.0010159116937 0 -0.083268865943 0.0011644104961 0 -0.083336137235 0.0013130330481 0 
-0.08332028985 0.0014566079481 0 -0.083230063319 0.0015987304505 0 -0.083073742688 0.0017365439562 0 
-0.0828595981 0.0018719100626 0 -0.082596860826 0.0020027919672 0 -0.082298763096 0.0021295563783 0 
-0.081986047328 0.0022492730059 0 -0.081697650254 0.0023595560342 0 -0.081503450871 0.0024529872462 0 
-0.081537172198 0.0025196415372 0 -0.08203433454 0.0025387932546 0 -0.083411321044 0.0024812866468 0 
-0.086319327354 0.002298376523 0 -0.091699399054 0.0019335323013 0 -0.1006096229 0.0013265372254 0 
-0.11396115273 0.00045465916628 0 -0.13194535673 -0.00065137981437 0 -0.15321619809 -0.0018032143125 0 
-0.17656330764 -0.0028845283668 0 -0.20096464455 -0.0038270445075 0 -0.2255487293 -0.0045740059577 0 
-0.24961210787 -0.0050987526774 0 -0.27256298065 -0.0053866319358 0 -0.29390063882 -0.0054323468357 0 
-0.31318917871 -0.0052510658279 0 -0.33004540205 -0.0048425346613 0 -0.34412774444 -0.0042579467408 0 
-0.35513219237 -0.0034701782279 0 -0.36278483272 -0.0026149440091 0 -0.36684480309 -0.0015350369504 0 
-0.36708754301 -0.00060479855165 0 -0.079836815596 8.4543178673e-05 0 -0.080779843032 0.00023495966161 0 
-0.081563360989 0.00040336736129 0 -0.082199700177 0.00055777630769 0 -0.082698903978 0.00072113936767 0 
-0.083072900772 0.0008753730217 0 -0.083332359791 0.0010328239296 0 -0.083488546312 0.0011836917838 0 
-0.083551608026 0.0013346734922 0 -0.0835313797 0.0014805136016 0 -0.083436623216 0.0016249044565 0 
-0.083275571465 0.0017649274087 0 -0.083056226373 0.0019025763031 0 -0.082787394524 0.0020357330795 0 
-0.082481212914 0.0021650493145 0 -0.082156822085 0.0022874425631 0 -0.081849701703 0.0024012499489 0 
-0.081624567509 0.0024987130892 0 -0.081605352461 0.0025717320386 0 -0.082014001906 0.002598582767 0 
-0.083245672286 0.0025542529766 0 -0.085932075977 0.0023858665954 0 -0.09100201726 0.0020443517715 0 
-0.099541142583 0.0014528249158 0 -0.11251982301 0.00060536531964 0 -0.13027863204 -0.00050456257304 0 
-0.15156199038 -0.0016852854751 0 -0.17505964637 -0.0027914848179 0 -0.19970616698 -0.0037665753625 0 
-0.22459721565 -0.0045419791713 0 -0.24900074303 -0.0050930245779 0 -0.27230480313 -0.0054017994553 0 
-0.29399204254 -0.0054632592946 0 -0.31361371279 -0.005292056594 0 -0.33077558875 -0.0048880432732 0 
-0.3451268971 -0.0043031014502 0 -0.35635566711 -0.0035100500099 0 -0.36418104172 -0.0026467097923 0 
-0.36835643649 -0.0015542326728 0 -0.36865219474 -0.00061261374503 0 -0.080069519579 8.5980027507e-05 0 
-0.081013873219 0.00023892715399 0 -0.08179744333 0.00041016848991 0 -0.082432702184 0.00056713988306 0 
-0.082929812372 0.00073318794603 0 -0.08330091089 0.0008899209206 0 -0.083556830883 0.0010498930933 0 
-0.083709068596 0.0012031497899 0 -0.08376788348 0.0013565056724 0 -0.083743266761 0.0015046304325 0 
-0.083643980324 0.0016512980219 0 -0.083478264511 0.0017935505603 0 -0.083253838122 0.0019334754907 0 
-0.082979135215 0.0020689261146 0 -0.082665286958 0.0022007476073 0 -0.082329981029 0.002325827023 0 
-0.082005396485 0.0024430095218 0 -0.081751562655 0.002544492716 0 -0.081682860851 0.0026234935503 0 
-0.08200854063 0.0026580567937 0 -0.083102189004 0.0026261098683 0 -0.085576109588 0.0024728055578 0 
-0.090342231095 0.002153434325 0 -0.098512731493 0.0015803400893 0 -0.11111439019 0.00075357104652 0 
-0.12860673666 -0.00035696302075 0 -0.14989066124 -0.0015626384411 0 -0.17353099585 -0.0026950696483 0 
-0.19841852784 -0.0037027604412 0 -0.22361655533 -0.004507671576 0 -0.24836215377 -0.0050855525769 0 
-0.27202269435 -0.0054159704596 0 -0.2940634191 -0.0054936576635 0 -0.31402239203 -0.0053329784423 0 
-0.33149403334 -0.0049337502569 0 -0.34611812234 -0.004348625429 0 -0.3575745225 -0.0035503304098 0 
-0.36557534337 -0.0026788490359 0 -0.36986806989 -0.0015736683272 0 -0.37021782994 -0.00062053039437 0 
-0.080303348601 8.7431770226e-05 0 -0.081249006093 0.00024293565366 0 -0.082032606006 0.00041703900206 0 
-0.082666732371 0.00057659787126 0 -0.083161696792 0.00074535532622 0 -0.083529829979 0.00090461008949 0 
-0.083782166243 0.001067123143 0 -0.083930395544 0.0012227892876 0 -0.083984941244 0.001378534711 0 
-0.083955913782 0.0015289646108 0 -0.083852112293 0.0016779176658 0 -0.08368177712 0.0018224215601 0 
-0.083452381194 0.0019646161236 0 -0.083172030747 0.0021023827139 0 -0.082850895822 0.0022366619669 0 
-0.082505352795 0.0023644450121 0 -0.082164511085 0.002484849887 0 -0.081884019077 0.0025903547648 0 
-0.081769198179 0.0026749414392 0 -0.0820171386 0.0027172402479 0 -0.082980185747 0.0026968335733 0 
-0.085250489414 0.0025591200683 0 -0.08972055465 0.0022606237326 0 -0.09752330184 0.0017089601606 0 
-0.10973885655 0.00089965277584 0 -0.12693952024 -0.00020871392917 0 -0.14820462465 -0.0014350118581 0 
-0.17197725177 -0.0025954258163 0 -0.19710165262 -0.0036355494522 0 -0.22260652483 -0.0044710938819 0 
-0.24769610167 -0.0050762956962 0 -0.27171635628 -0.0054291309789 0 -0.29411450028 -0.0055235228501 0 
-0.31441497803 -0.0053738253191 0 -0.33220055699 -0.0049796523526 0 -0.34710130095 -0.0043945210055 0 
-0.35878872871 -0.003591024084 0 -0.36696767807 -0.0027113661636 0 -0.37137961388 -0.0015933470568 0 
-0.37178438902 -0.00062854989665 0 -0.080538280308 8.8898821559e-05 0 -0.081485234201 0.00024698628113 0 
-0.082268819213 0.00042398078949 0 -0.082901775837 0.0005861526588 0 -0.083394527435 0.00075764453504 0 
-0.083759643137 0.00091944407905 0 -0.084008336067 0.0010845187353 0 -0.084152512252 0.0012426151661 0 
-0.084202751517 0.0014007663121 0 -0.08416929841 0.0015535217244 0 -0.084060996771 0.001704770606 0 
-0.08388607949 0.0018515470438 0 -0.083651810884 0.0019960068166 0 -0.083365999162 0.0021361103281 0 
-0.083037935197 0.0022728028707 0 -0.082682788372 0.0024033016525 0 -0.082326807082 0.0025267812889 0 
-0.082021549344 0.0026362894569 0 -0.081863790751 0.0027260754723 0 -0.082038909197 0.0027760423254 0 
-0.082878626883 0.0027663663495 0 -0.084954112768 0.0026443311945 0 -0.08913654834 0.0023657055572 0 
-0.09657343477 0.0018368872115 0 -0.10839504749 0.0010451416019 0 -0.12528006732 -5.7927394664e-05 0 
-0.1465049386 -0.0013031072449 0 -0.17039868236 -0.0024925605394 0 -0.19575561583 -0.0035650408827 0 
-0.22156694531 -0.0044322507456 0 -0.2470023632 -0.0050652385689 0 -0.2713856101 -0.0054412679747 0 
-0.29414510727 -0.0055528432131 0 -0.31479132175 -0.0054145907052 0 -0.33289501071 -0.0050257500261 0 
-0.34807634354 -0.0044407914393 0 -0.35999816656 -0.0036321356893 0 -0.36835804582 -0.0027442660648 0 
-0.37289109826 -0.0016132725868 0 -0.37335187197 -0.00063667347422 0 -0.080774284899 9.0381647169e-05 0 
-0.081722527742 0.00025108008413 0 -0.082506068051 0.00043099577306 0 -0.08313780278 0.00059580686502 0 
-0.083628289402 0.00077005900675 0 -0.083990320563 0.00093442661455 0 -0.084235325456 0.001102084294 0 
-0.084375396371 0.0012626319658 0 -0.084421291947 0.0014232064132 0 -0.084383398294 0.0015783073613 0 
-0.084270603955 0.0017318644095 0 -0.08409114182 0.0018809334142 0 -0.083852104843 0.00202765828 0 
-0.083560988307 0.002170116175 0 -0.083226330578 0.0023091863841 0 -0.082862123847 0.0024424053263 0 
-0.082492053509 0.0025688298047 0 -0.082163743675 0.0026823068038 0 -0.081966072321 0.0027769368608 0 
-0.082072988153 0.002834467683 0 -0.082796417177 0.0028347482439 0 -0.084685757756 0.0027283770032 0 
-0.088589303195 0.0024685810786 0 -0.095663592219 0.0019638061058 0 -0.10708425939 0.0011897057993 0 
-0.123632662 9.5783507277e-05 0 -0.14479215443 -0.0011667057406 0 -0.16879561543 -0.0023865415715 0 
-0.19438046217 -0.0034911513794 0 -0.22049772739 -0.0043911151588 0 -0.24628077447 -0.0050523341633 0 
-0.2710301578 -0.0054523530416 0 -0.29415500164 -0.0055816005915 0 -0.3151512146 -0.0054552634247 0 
-0.33357727528 -0.0050720400177 0 -0.34904313087 -0.0044874367304 0 -0.36120283604 -0.0036736696493 0 
-0.3697463572 -0.0027775526978 0 -0.37440252304 -0.0016334482934 0 -0.37492033839 -0.00064490234945 0 
-0.081011354923 9.1880683613e-05 0 -0.081960864365 0.00025521818316 0 -0.082744337618 0.00043808596092 0 
-0.083374790847 0.00060556293465 0 -0.083862960339 0.00078260205919 0 -0.084221854806 0.00094956136309 0 
-0.084463097155 0.001119824592 0 -0.084599018097 0.0012828444596 0 -0.084640540183 0.001445861184 0 
-0.084598183632 0.0016033269931 0 -0.084480911493 0.0017592072254 0 -0.084296934307 0.0019105864922 0 
-0.084053203464 0.0020595814567 0 -0.083756931126 0.0022044056095 0 -0.083415985107 0.0023458290379 0 
-0.083043217659 0.0024817609228 0 -0.082660026848 0.0026110231411 0 -0.08231023699 0.0027284086682 0 
-0.082075491548 0.0028275733348 0 -0.082118526101 0.002892507473 0 -0.082732461393 0.0029020418879 0 
-0.084444150329 0.0028112006839 0 -0.088077954948 0.002569217002 0 -0.094793982804 0.0020894932095 0 
-0.10580874979 0.001332910615 0 -0.12200131267 0.00025276013184 0 -0.14306652546 -0.0010255600791 0 
-0.16716825962 -0.0022775065154 0 -0.19297637045 -0.0034137873445 0 -0.21939875185 -0.0043476480059 0 
-0.24553118646 -0.005037534982 0 -0.27064985037 -0.0054623470642 0 -0.29414400458 -0.0056097744964 0 
-0.31549450755 -0.0054958276451 0 -0.33424723148 -0.0051185204647 0 -0.35000157356 -0.0045344564132 0 
-0.36240261793 -0.0037156299222 0 -0.37113261223 -0.0028112300206 0 -0.37591385841 -0.0016538770869 0 
-0.37648972869 -0.00065323757008 0 -0.081249475479 9.3396411103e-05 0 -0.082200244069 0.00025940171327 0 
-0.082983605564 0.00044525336125 0 -0.083612732589 0.00061542354524 0 -0.084098525345 0.0007952771266 0 
-0.084454208612 0.00096485222457 0 -0.084691636264 0.0011377444025 0 -0.084823362529 0.0013032574207 0 
-0.084860473871 0.0014687372604 0 -0.084813639522 0.001628586906 0 -0.084691889584 0.0017868083669 0 
-0.084503419697 0.001940513961 0 -0.084255084395 0.0020917905495 0 -0.083953782916 0.0022389891092 0 
-0.083606816828 0.002382755978 0 -0.083225943148 0.0025213826448 0 -0.082830525935 0.0026534087956 0 
-0.082460686564 0.002774619963 0 -0.082191511989 0.0028780763969 0 -0.082174710929 0.0029502077959 0 
-0.082685709 0.0029683988541 0 -0.084227979183 0.0028928630054 0 -0.08760150522 0.0026677146088 0 
-0.093964405358 0.0022139037028 0 -0.10457064211 0.0014741398627 0 -0.12039092928 0.00041295573465 0 
-0.14132781327 -0.00087946635904 0 -0.16551683843 -0.0021656709723 0 -0.1915435791 -0.003332835855 0 
-0.21826992929 -0.0043017677963 0 -0.24475340545 -0.0050207874738 0 -0.27024441957 -0.0054711895064 0 
-0.29411193728 -0.0056373425759 0 -0.31582099199 -0.005536259152 0 -0.33490470052 -0.0051651843823 0 
-0.35095155239 -0.0045818467624 0 -0.36359751225 -0.0037580186035 0 -0.37251675129 -0.0028453003615 0 
-0.37742510438 -0.0016745618777 0 -0.37806007266 -0.00066168006742 0 -0.081488616765 9.4929280749e-05 0 
-0.082440637052 0.00026363183861 0 -0.083223849535 0.00045250001131 0 -0.083851605654 0.00062539131613 0 
-0.084334954619 0.00080808775965 0 -0.084687374532 0.00098030315712 0 -0.084920935333 0.0011558488477 0 
-0.085048407316 0.0013238763204 0 -0.085081078112 0.001491841278 0 -0.085029743612 0.0016540932702 0 
-0.084903523326 0.0018146770308 0 -0.084710583091 0.001970723737 0 -0.084457710385 0.0021243002266 0 
-0.084151491523 0.0022738759872 0 -0.083798766136 0.0024199916515 0 -0.083410173655 0.0025612846948 0 
-0.083003349602 0.0026960358955 0 -0.082614779472 0.0028209628072 0 -0.082313656807 0.0029285482597 0 
-0.082240790129 0.0030076038092 0 -0.08265516907 0.0030340151861 0 -0.084035933018 0.0029733995907 0 
-0.087158970535 0.0027643183712 0 -0.093174047768 0.002336982172 0 -0.1033718586 0.0016128787538 0 
-0.11880621314 0.00057606800692 0 -0.13957607746 -0.00072822556831 0 -0.16384160519 -0.0020512423944 0 
-0.19008263946 -0.0032482356764 0 -0.21711114049 -0.0042533287778 0 -0.24394731224 -0.0050020595081 0 
-0.269813627 -0.0054787988774 0 -0.29405853152 -0.0056642820127 0 -0.31613048911 -0.0055765276775 0 
-0.33554956317 -0.0052120257169 0 -0.35189297795 -0.0046296026558 0 -0.36478736997 -0.0038008380216 0 
-0.37389877439 -0.0028797665145 0 -0.37893626094 -0.001695505227 0 -0.37963137031 -0.0006702306564 0 
-0.08172878623 9.6479758213e-05 0 -0.082682035863 0.00026790981065 0 -0.083465062082 0.00045982803567 0 
-0.08409139514 0.00063546892488 0 -0.08457224071 0.00082103750901 0 -0.084921322763 0.00099591829348 0 
-0.085150957108 0.0011741427006 0 -0.085274137557 0.0013447062811 0 -0.085302338004 0.0015151798725 0 
-0.085246481001 0.0016798530705 0 -0.085115782917 0.0018428227631 0 -0.084918402135 0.0020012243185 0 
-0.08466104418 0.0021571246907 0 -0.084350012243 0.0023090788163 0 -0.083991751075 0.0024575621355 0 
-0.083595819771 0.0026014852338 0 -0.083178326488 0.0027389584575 0 -0.082772247493 0.0028674683999 0 
-0.082441478968 0.0029791151173 0 -0.082316100597 0.0030647460371 0 -0.082639880478 0.003099198686 0 
-0.08386682719 0.0030528518837 0 -0.086749255657 0.0028598078061 0 -0.09242194891 0.0024585626088 0 
-0.10221332312 0.0017510536127 0 -0.11725429446 0.00073934096145 0 -0.13780972362 -0.00057358160848 0 
-0.16214324534 -0.0019331126241 0 -0.18859402835 -0.003160038963 0 -0.21592228115 -0.0042019654065 0 
-0.2431126982 -0.0049813133664 0 -0.26935726404 -0.0054850582965 0 -0.29398360848 -0.0056905630045 0 
-0.31642284989 -0.0056165982969 0 -0.33618164062 -0.0052590342239 0 -0.35282573104 -0.0046777189709 0 
-0.3659721911 -0.0038440893404 0 -0.37527865171 -0.0029146308079 0 -0.38044726849 -0.0017167095793 0 
-0.38120362163 -0.00067889032653 0 -0.081969946623 9.8048280051e-05 0 -0.082924418151 0.00027223676443 0 
-0.083707228303 0.00046723944251 0 -0.084332078695 0.00064565928187 0 -0.084810353816 0.00083412986714 0 
-0.085156045854 0.00101170165 0 -0.085381694138 0.0011926309671 0 -0.085500530899 0.0013657527743 0 
-0.085524223745 0.0015387595631 0 -0.085463829339 0.0017058731755 0 -0.085328660905 0.0018712542951 0 
-0.085126847029 0.0020320250187 0 -0.084865070879 0.0021902765147 0 -0.084549330175 0.0023446087725 0 
-0.08418571949 0.0024954886176 0 -0.083782799542 0.002642001491 0 -0.083355307579 0.0027822195552 0 
-0.08293287456 0.0029141663108 0 -0.08257458359 0.0030298773199 0 -0.082400120795 0.0031216857024 0 
-0.082638993859 0.0031642061658 0 -0.083719879389 0.0031312662177 0 -0.086371436715 0.0029549140017 0 
-0.091708414257 0.0025784824975 0 -0.10109416395 0.0018913220847 0 -0.11573395878 0.00090007093968 0 
-0.13603453338 -0.00041817166493 0 -0.16042369604 -0.0018096162239 0 -0.18707762659 -0.0030684140511 0 
-0.21470317245 -0.0041473340243 0 -0.24224923551 -0.0049585253 0 -0.26887506247 -0.0054898727685 0 
-0.29388687015 -0.0057161613367 0 -0.31669780612 -0.0056564444676 0 -0.33680078387 -0.0053062043153 0 
-0.35374975204 -0.0047261924483 0 -0.36715185642 -0.0038877755869 0 -0.37665632367 -0.002949896967 0 
-0.38195815682 -0.0017381779617 0 -0.38277682662 -0.00068766030017 0 -0.082212097943 9.9635297374e-05 0 
-0.083167769015 0.00027661398053 0 -0.083950325847 0.0004747362982 0 -0.084573641419 0.00065596506465 0 
-0.085049293935 0.0008473682683 0 -0.085391528904 0.0010276574176 0 -0.085613124073 0.0012113183038 0 
-0.085727572441 0.0013870213879 0 -0.085746720433 0.0015625865199 0 -0.085681773722 0.0017321603373 0 
-0.08554212749 0.0018999791937 0 -0.08533591032 0.002063133521 0 -0.08506975323 0.0022237657104 0 
-0.084749400616 0.0023804761004 0 -0.084380619228 0.0025337841362 0 -0.083971038461 0.0026828455739 0 
-0.083534158766 0.0028258368839 0 -0.083096459508 0.0029610698111 0 -0.082712590694 0.0030808551237 0 
-0.082492366433 0.0031784288585 0 -0.082651682198 0.0032290245872 0 -0.083594352007 0.0032085906714 0 
-0.086024574935 0.0030493803788 0 -0.091033987701 0.0026965166908 0 -0.10001393408 0.0020327758975 0 
-0.11424122006 0.0010593766347 0 -0.13425832987 -0.00026130912011 0 -0.15868484974 -0.0016809133813 0 
-0.18553318083 -0.0029734561685 0 -0.21345363557 -0.0040894495323 0 -0.24135664105 -0.00493371021 0 
-0.26836675406 -0.0054932157509 0 -0.29376813769 -0.005741070956 0 -0.31695520878 -0.0056960554793 0 
-0.3374068737 -0.0053535355255 0 -0.35466486216 -0.0047750258818 0 -0.36832633615 -0.0039319014177 0 
-0.37803173065 -0.0029855701141 0 -0.38346892595 -0.0017599136336 0 -0.38435095549 -0.00069654220715 0 
-0.082455225289 0.00010124123219 0 -0.083412088454 0.00028104271041 0 -0.084194339812 0.00048232066911 0 
-0.084816068411 0.00066638906719 0 -0.085289031267 0.00086075626314 0 -0.085627742112 0.0010437897872 0 
-0.08584523946 0.0012302096002 0 -0.085955247283 0.0014085173607 0 -0.085969820619 0.0015866666799 0 
-0.085900299251 0.0017587216571 0 -0.085756182671 0.0019290047931 0 -0.085545577109 0.0020945591386 0 
-0.08527508378 0.0022576008923 0 -0.084950193763 0.0024166917428 0 -0.084576405585 0.0025724587031 0 
-0.084160469472 0.0027240307536 0 -0.083714731038 0.0028698209208 0 -0.08326280117 0.0030081951991 0 
-0.082855127752 0.0031320527196 0 -0.08259228617 0.0032349876128 0 -0.082677096128 0.003293601796 0 
-0.083489209414 0.0032847870607 0 -0.085707560182 0.0031428269576 0 -0.090398207307 0.0028124309611 0 
-0.098973348737 0.0021738053765 0 -0.1127775833 0.0012184362859 0 -0.13248443604 -0.00010137107165 0 
-0.15692748129 -0.0015475015389 0 -0.1839608252 -0.0028751702048 0 -0.21217361093 -0.0040283575654 0 
-0.24043472111 -0.0049068699591 0 -0.26783210039 -0.0054950676858 0 -0.2936271131 -0.005765282549 0 
-0.31719484925 -0.0057354238816 0 -0.3379997015 -0.0054010269232 0 -0.35557097197 -0.0048242220655 0 
-0.36949554086 -0.0039764707908 0 -0.37940487266 -0.0030216556042 0 -0.38497951627 -0.0017819200875 0 
-0.38592603803 -0.0007055378519 0 -0.08269931376 0.00010286651377 0 -0.083657346666 0.00028552420554 0 
-0.084439270198 0.0004899945925 0 -0.085059352219 0.00067693419987 0 -0.08552955091 0.00087429728592 0 
-0.085864678025 0.0010601029499 0 -0.08607801795 0.0012493095128 0 -0.086183540523 0.0014302465133 0 
-0.086193501949 0.0016110058641 0 -0.086119391024 0.0017855642363 0 -0.085970796645 0.0019583380781 0 
-0.085755825043 0.0021263104863 0 -0.085481032729 0.0022917895112 0 -0.085151694715 0.0024532668758 0 
-0.084773026407 0.0026115200017 0 -0.084351010621 0.0027655716985 0 -0.083896905184 0.0029141779523 0 
-0.083431690931 0.003055562498 0 -0.083001852036 0.0031834722031 0 -0.082699358463 0.0032913913019 0 
-0.082714378834 0.0033579228912 0 -0.083403356373 0.0033598772716 0 -0.08541918546 0.0032351431437 0 
-0.089800260961 0.0029261072632 0 -0.097973063588 0.0023139959667 0 -0.11134458333 0.0013770137448 0 
-0.13071681559 6.2159619119e-05 0 -0.15515197814 -0.0014091641642 0 -0.18236064911 -0.0027735822368 0 
-0.21086299419 -0.0039639817551 0 -0.23948328197 -0.0048779807985 0 -0.26727095246 -0.0054953885265 0 
-0.29346364737 -0.0057887784205 0 -0.31741654873 -0.0057745384984 0 -0.33857917786 -0.0054486738518 0 
-0.35646802187 -0.0048737837933 0 -0.37065941095 -0.0040214881301 0 -0.38077571988 -0.0030581587926 0 
-0.38648992777 -0.0018042002339 0 -0.38750207424 -0.00071464898065 0 -0.082944355905 0.00010451157141 0 
-0.083903543651 0.00029005971737 0 -0.084685087204 0.00049776013475 0 -0.085303470492 0.00068760325667 0 
-0.085770845413 0.00088799471268 0 -0.086102321744 0.0010766010964 0 -0.08631143719 0.0012686224654 0 
-0.08641242981 0.0014522144338 0 -0.086417749524 0.0016356097767 0 -0.086339041591 0.0018126952928 0 
-0.086185954511 0.001987985801 0 -0.085966639221 0.0021583971102 0 -0.085687577724 0.0023263399489 0 
-0.08535387367 0.002490214305 0 -0.084970444441 0.0026509764139 0 -0.084542602301 0.0028074877337 0 
-0.084080561996 0.0029589175247 0 -0.083602942526 0.0031032031402 0 -0.083152420819 0.0032351238187 0 
-0.082813054323 0.0033476911485 0 -0.08276271075 0.0034219950903 0 -0.083335697651 0.0034339257982 0 
-0.08515817672 0.0033262898214 0 -0.08923933655 0.0030374873895 0 -0.097013555467 0.0024530985393 0 
-0.10994458199 0.0015346461441 0 -0.12895935774 0.00022965190874 0 -0.15335838497 -0.0012656294275 0 
-0.18073269725 -0.0026688030921 0 -0.20952177048 -0.0038962166291 0 -0.23850214481 -0.0048470110632 0 
-0.26668304205 -0.0054941335693 0 -0.29327747226 -0.0058115287684 0 -0.31762012839 -0.0058133867569 0 
-0.33914512396 -0.0054964679293 0 -0.35735586286 -0.0049237119965 0 -0.37181788683 -0.0040669548325 0 
-0.38214424253 -0.0030950841028 0 -0.38800016046 -0.0018267567502 0 -0.38907906413 -0.00072387733962 0 
-0.083190336823 0.0001061768271 0 -0.084150664508 0.00029465052648 0 -0.084931790829 0.00050561933313 0 
-0.08554841578 0.00069839897333 0 -0.086012899876 0.00090185197769 0 -0.086340665817 0.0010932884179 0 
-0.086545497179 0.0012881532311 0 -0.086641915143 0.00147442671 0 -0.086642563343 0.0016604844714 0 
-0.086559228599 0.0018401223933 0 -0.08640165627 0.0020179552957 0 -0.086178004742 0.0021908292547 0 
-0.085894703865 0.0023612598889 0 -0.085556700826 0.002527548233 0 -0.085168607533 0.0026908374857 0 
-0.084735184908 0.002849800745 0 -0.084265574813 0.0030040505808 0 -0.08377636224 0.0031511562411 0 
-0.083306498826 0.0032870245632 0 -0.082932882011 0.0034039602615 0 -0.082821287215 0.0034858486615 0 
-0.083285175264 0.0035070430022 0 -0.084923200309 0.0034163044766 0 -0.088714458048 0.003146576928 0 
-0.096094787121 0.002591032302 0 -0.10857988894 0.0016906092642 0 -0.12721648812 0.00040126568638 0 
-0.15154644847 -0.0011165254982 0 -0.17907693982 -0.0025610385928 0 -0.20815005898 -0.0038249338977 0 
-0.23749114573 -0.0048139039427 0 -0.26606824994 -0.0054912539199 0 -0.29306837916 -0.005833490286 0 
-0.31780540943 -0.0058519542217 0 -0.33969736099 -0.0055443947203 0 -0.35823440552 -0.0049740062095 0 
-0.37297087908 -0.0041128708981 0 -0.38351035118 -0.0031324352603 0 -0.38951021433 -0.0018495916156 0 
-0.39065700769 -0.00073322432581 0 -0.083437249064 0.00010786271741 0 -0.084398701787 0.00029929782613 0 
-0.085179358721 0.00051357416669 0 -0.085794173181 0.00070932426024 0 -0.086255699396 0.00091587245697 0 
-0.086579680443 0.0011101691052 0 -0.086780175567 0.0013079064665 0 -0.08687196672 0.0014968890464 0 
-0.086867913604 0.0016856357688 0 -0.086779944599 0.0018678531051 0 -0.08661788702 0.0020482540131 0 
-0.086389914155 0.0022236173972 0 -0.08610239625 0.0023965591099 0 -0.08576015383 0.0025652849581 0 
-0.085367493331 0.0027311155573 0 -0.084928691387 0.0028925384395 0 -0.08445186168 0.0030495950487 0 
-0.083951793611 0.0031994748861 0 -0.083463817835 0.0033392044716 0 -0.08305837214 0.0034603080712 0 
-0.08288936317 0.0035495401826 0 -0.083250798285 0.0035794379655 0 -0.084712944925 0.0035052734893 0 
-0.088224679232 0.0032536163926 0 -0.095216430724 0.0027277970221 0 -0.10725280643 0.0018443549052 0 
-0.12549372017 0.00057676743018 0 -0.14971536398 -0.00096173625207 0 -0.17739333212 -0.0024504878093 0 
-0.20674803853 -0.0037500271574 0 -0.2364500761 -0.0047785425559 0 -0.26542633772 -0.0054867076688 0 
-0.29283612967 -0.0058545968495 0 -0.31797221303 -0.005890222732 0 -0.34023579955 -0.0055924328044 0 
-0.35910353065 -0.0050246650353 0 -0.37411832809 -0.0041592349298 0 -0.38487404585 -0.0031702155247 0 
-0.39102005959 -0.0018727065763 0 -0.39223587513 -0.00074269127799 0 -0.083685085177 0.0001095696789 0 
-0.084647640586 0.00030400286778 0 -0.08542779088 0.0005216266145 0 -0.086040727794 0.00072038167855 0 
-0.086499229074 0.00093005952658 0 -0.08681935817 0.0011272473494 0 -0.087015457451 0.0013278868282 0 
-0.087102584541 0.0015196069144 0 -0.087093792856 0.0017110697227 0 -0.087001182139 0.001895894995 0 
-0.08683463186 0.0020788894035 0 -0.08660235256 0.0022567720152 0 -0.086310639977 0.0024322469253 0 
-0.085964210331 0.0026034396142 0 -0.085567064583 0.0027718220372 0 -0.085123069584 0.0029357261956 0 
-0.084639325738 0.0030955665279 0 -0.084129087627 0.0032482093666 0 -0.083624109626 0.0033916877583 0 
-0.083189114928 0.0035168416798 0 -0.082966275513 0.0036131057423 0 -0.083231605589 0.0036513302475 0 
-0.084526099265 0.003593215486 0 -0.087768957019 0.0033589436207 0 -0.094377309084 0.002863280708 0 
-0.10596508533 0.0019954941235 0 -0.12379517406 0.00075561652193 0 -0.14786547422 -0.00080103974324 0 
-0.17568203807 -0.0023372611031 0 -0.20531624556 -0.0036714787129 0 -0.23537875712 -0.004740731325 0 
-0.26475712657 -0.0054804771207 0 -0.29258054495 -0.0058747665025 0 -0.31812033057 -0.0059281773865 0 
-0.34076026082 -0.0056405588984 0 -0.35996317863 -0.0050756847486 0 -0.37526017427 -0.0042060441338 0 
-0.38623529673 -0.0032084274571 0 -0.39252966642 -0.0018961031456 0 -0.39381569624 -0.00075227930211 0 
-0.083933830261 0.00011129812628 0 -0.084897466004 0.00030876684468 0 -0.085677072406 0.00052977871383 0 
-0.086288072169 0.00073157402221 0 -0.086743481457 0.00094441644615 0 -0.087059698999 0.0011445268756 0 
-0.087251342833 0.0013480986236 0 -0.087333761156 0.0015425856691 0 -0.087320193648 0.0017367921537 0 
-0.087222918868 0.0019242551643 0 -0.087051875889 0.0021098691504 0 -0.086815312505 0.0022903028876 0 
-0.086519420147 0.0024683331139 0 -0.086168862879 0.0026420268696 0 -0.085767298937 0.0028129701968 0 
-0.085318282247 0.0029793893918 0 -0.084827907383 0.003141985042 0 -0.084308095276 0.003297412768 0 
-0.083787173033 0.0034445093479 0 -0.083324708045 0.0035736940335 0 -0.083051435649 0.0036766098347 0 
-0.083226688206 0.0037230905145 0 -0.084361612797 0.0036802066024 0 -0.087346233428 0.0034637129866 0 
-0.093576811254 0.0029973064084 0 -0.10471712798 0.0021480866708 0 -0.12213040143 0.00093311868841 0 
-0.14599324763 -0.00063774827868 0 -0.17394381762 -0.0022191749886 0 -0.20385481417 -0.0035893621389 0 
-0.23427699506 -0.0046999952756 0 -0.26406034827 -0.0054725133814 0 -0.29230129719 -0.0058938832954 0 
-0.31824955344 -0.005965792574 0 -0.34127056599 -0.0056887459941 0 -0.36081317067 -0.0051270620897 0 
-0.37639632821 -0.0042532975785 0 -0.38759407401 -0.0032470738515 0 -0.39403903484 -0.001919783419 0 
-0.39539644122 -0.00076198944589 0 -0.084183476865 0.00011304850341 0 -0.085148185492 0.00031359086279 0 
-0.085927195847 0.00053803232731 0 -0.086536191404 0.00074290373595 0 -0.086988441646 0.00095894635888 0 
-0.087300673127 0.001162011642 0 -0.087487801909 0.0013685463928 0 -0.087565466762 0.0015658305492 0 
-0.087547108531 0.0017628088826 0 -0.087445162237 0.0019529404817 0 -0.087269619107 0.0021412004717 0 
-0.087028779089 0.0023242190946 0 -0.086728744209 0.0025048267562 0 -0.086374089122 0.0026810592972 0 
-0.085968188941 0.0028545719106 0 -0.085514292121 0.0030235471204 0 -0.085017547011 0.0031888664234 0 
-0.084488704801 0.0033471190836 0 -0.083952836692 0.0034976943862 0 -0.083464823663 0.0036309361458 0 
-0.083144418895 0.0037400927395 0 -0.083235278726 0.0037948826794 0 -0.084218889475 0.0037662822288 0 
-0.086955688894 0.0035683431197 0 -0.092816069722 0.0031297667883 0 -0.10350748897 0.0023040508386 0 
-0.12049038708 0.0011079862015 0 -0.14411078393 -0.00047405582154 0 -0.17218092084 -0.0020948911551 0 
-0.20236317813 -0.0035038515925 0 -0.23314446211 -0.00465612486 0 -0.2633356154 -0.0054628136568 0 
-0.29199817777 -0.0059118913487 0 -0.31835964322 -0.0060030594468 0 -0.34176659584 -0.0057369819842 0 
-0.36165338755 -0.0051787979901 0 -0.3775267303 -0.0043009966612 0 -0.3889502883 -0.0032861593645 0 
-0.39554816484 -0.0019437505398 0 -0.39697811007 -0.00077182293171 0 -0.08443402499 0.00011482121772 0 
-0.085399776697 0.00031847605715 0 -0.086178146303 0.00054638931761 0 -0.086785078049 0.0007543732645 0 
-0.087234094739 0.00097365240799 0 -0.087542280555 0.0011797051411 0 -0.087724842131 0.0013892343268 0 
-0.087797708809 0.0015893462114 0 -0.087774522603 0.001789125381 0 -0.087667889893 0.0019819571171 0 
-0.087487861514 0.0021728908177 0 -0.087242752314 0.0023585285526 0 -0.086938589811 0.0025417371653 0 
-0.086579881608 0.002720546443 0 -0.086169704795 0.0028966371901 0 -0.085711054504 0.0030682112556 0 
-0.085208192468 0.0032362218481 0 -0.084670811892 0.0033973418176 0 -0.084120929241 0.0035512519535 0 
-0.083609133959 0.0036885738373 0 -0.083244748414 0.0038035463076 0 -0.083256565034 0.003866629675 0 
-0.084097065032 0.0038513387553 0 -0.086596354842 0.003672240302 0 -0.092095427215 0.0032602844294 0 
-0.10233676434 0.0024607405066 0 -0.11887581646 0.0012827479513 0 -0.14222146571 -0.00030751802842 0 
-0.17039446533 -0.0019654643256 0 -0.20084103942 -0.0034149906132 0 -0.23198091984 -0.0046092439443 0 
-0.26258262992 -0.0054514063522 0 -0.29167094827 -0.0059287874028 0 -0.31845042109 -0.0060399812646 0 
-0.34224814177 -0.0057852659374 0 -0.36248376966 -0.0052308971062 0 -0.37865132093 -0.0043491474353 0 
-0.39030393958 -0.0033256888855 0 -0.39705699682 -0.0019680082332 0 -0.3985607326 -0.00078178121476 0 
-0.084685459733 0.00011661668395 0 -0.08565223217 0.00032342344639 0 -0.086429916322 0.00055485148914 0 
-0.087034717202 0.00076598499436 0 -0.087480433285 0.00098853744566 0 -0.087784506381 0.0011976107489 0 
-0.087962441146 0.0014101665001 0 -0.088030464947 0.0016131371958 0 -0.088002435863 0.0018157471204 0 
-0.087891101837 0.0020113107748 0 -0.087706580758 0.0022049469408 0 -0.087457217276 0.0023932387121 0 
-0.087148949504 0.002579072956 0 -0.086786225438 0.0027604976203 0 -0.086371839046 0.002939177677 0 
-0.085908547044 0.0031133922748 0 -0.085399791598 0.0032840659842 0 -0.08485430479 0.0034480937757 0 
-0.084291286767 0.0036052016076 0 -0.083757303655 0.003746620845 0 -0.083351925015 0.0038669973146 0 
-0.083289720118 0.0039383266121 0 -0.083995081484 0.0039353840984 0 -0.086267061532 0.0037752219941 0 
-0.09141420573 0.0033886712044 0 -0.1012057662 0.0026172499638 0 -0.11728731543 0.0014576674439 0 
-0.14032936096 -0.00013722314907 0 -0.16858486831 -0.0018308984581 0 -0.19928842783 -0.0033227673266 0 
-0.23078621924 -0.0045593203977 0 -0.26180115342 -0.0054382830858 0 -0.29131934047 -0.0059445463121 0 
-0.31852164865 -0.0060765547678 0 -0.34271505475 -0.0058335955255 0 -0.36330416799 -0.0052833640948 0 
-0.37976998091 -0.0043977550231 0 -0.39165496826 -0.0033656682353 0 -0.39856556058 -0.0019925606903 0 
-0.4001442492 -0.00079186551739 0 -0.084937773645 0.00011843528046 0 -0.08590555191 0.00032843402005 0 
-0.086682491004 0.00056342047174 0 -0.087285108864 0.00077774102101 0 -0.087727449834 0.0010036042659 0 
-0.088027335703 0.0012157317251 0 -0.088200584054 0.0014313466381 0 -0.088263727725 0.0016372078098 0 
-0.088230825961 0.0018426791066 0 -0.088114790618 0.0020410073921 0 -0.08792578429 0.0022373758256 0 
-0.087672173977 0.0024283563253 0 -0.087359823287 0.002616842743 0 -0.08699310571 0.0028009200469 0 
-0.086574569345 0.0029822040815 0 -0.086106725037 0.0031590973958 0 -0.0855922997 0.0033324116375 0 
-0.08503908664 0.0034993791487 0 -0.084463745356 0.0036595596466 0 -0.083909034729 0.0038050722796 0 
-0.083465479314 0.0039304648526 0 -0.083333939314 0.0040099364705 0 -0.08391186595 0.0040184226818 0 
-0.085966609418 0.003877117997 0 -0.090771764517 0.0035147967283 0 -0.10011538863 0.0027730476577 0 
-0.11572705209 0.0016326281475 0 -0.13843780756 3.7494683056e-05 0 -0.1667522639 -0.0016910029808 0 
-0.19770523906 -0.0032271819655 0 -0.2295601368 -0.0045062866993 0 -0.26099100709 -0.0054234284908 0 
-0.29094317555 -0.0059591392055 0 -0.31857311726 -0.0061127706431 0 -0.34316721559 -0.0058819679543 0 
-0.36411449313 -0.0053361994214 0 -0.38088271022 -0.0044468250126 0 -0.39300337434 -0.0034061016049 0 
-0.40007379651 -0.0020174116362 0 -0.40172868967 -0.00080207682913 0 -0.085190959275 0.00012027739285 0 
-0.086159721017 0.00033350873855 0 -0.0869358778 0.00057209783699 0 -0.087536238134 0.00078964338172 0 
-0.087975129485 0.0010188554879 0 -0.088270761073 0.00123407098 0 -0.088439270854 0.0014527783496 0 
-0.088497497141 0.0016615620116 0 -0.088459700346 0.0018699263455 0 -0.088338941336 0.0020710518584 0 
-0.088145457208 0.0022701842245 0 -0.087887607515 0.0024638879113 0 -0.087571203709 0.0026550558396 0 
-0.087200514972 0.0028418216389 0 -0.086777880788 0.0030257287435 0 -0.086305566132 0.0032053354662 0 
-0.085785657167 0.0033812776674 0 -0.085225053132 0.0035512074828 0 -0.084638141096 0.0037143563386 0 
-0.084064021707 0.0038639418781 0 -0.083584912121 0.00399400061 0 -0.08338842541 0.004081481602 0 
-0.083846330643 0.0041005220264 0 -0.085693717003 0.0039779259823 0 -0.090167231858 0.0036385799758 0 
-0.099066197872 0.0029279123992 0 -0.11419736594 0.0018070590449 0 -0.13655054569 0.0002169724321 0 
-0.16489642859 -0.0015454313252 0 -0.19609133899 -0.0031283257995 0 -0.2283025533 -0.0044500236399 0 
-0.26015195251 -0.005406813696 0 -0.29054221511 -0.0059725246392 0 -0.31860467792 -0.0061486088671 0 
-0.34360444546 -0.0059303771704 0 -0.36491459608 -0.0053894012235 0 -0.38198938966 -0.004496361129 0 
-0.3943490684 -0.0034469915554 0 -0.40158173442 -0.0020425647963 0 -0.40331405401 -0.00081241573207 0 
-0.085445009172 0.00012214334856 0 -0.086414732039 0.0003386483877 0 -0.087190046906 0.00058088504011 0 
-0.08778809011 0.00080169388093 0 -0.088223464787 0.0010342933238 0 -0.088514775038 0.0012526311912 0 
-0.088678494096 0.0014744650107 0 -0.088731750846 0.0016862032935 0 -0.088689044118 0.0018974934937 0 
-0.08856356144 0.0021014488302 0 -0.088365592062 0.0023033784237 0 -0.088103525341 0.0024998397566 0 
-0.08778309077 0.0026937215589 0 -0.087408445776 0.0028832103126 0 -0.086981765926 0.0030697651673 0 
-0.086505040526 0.0032521148678 0 -0.085979826748 0.0034306840971 0 -0.085412114859 0.0036035894882 0 
-0.084814317524 0.0037696275394 0 -0.084221981466 0.0039232447743 0 -0.083709791303 0.0040576728061 0 
-0.083452425897 0.004152991809 0 -0.083797439933 0.004181788303 0 -0.085447058082 0.0040776864626 0 
-0.089599698782 0.0037600151263 0 -0.098058432341 0.0030817470979 0 -0.11270079017 0.0019802371971 0 
-0.13467180729 0.00040143672959 0 -0.16301691532 -0.0013937955955 0 -0.19444650412 -0.0030263762455 0 
-0.22701340914 -0.0043903989717 0 -0.25928372145 -0.0053883944638 0 -0.29011631012 -0.0059846621007 0 
-0.31861609221 -0.0061840391718 0 -0.34402665496 -0.0059788152575 0 -0.36570441723 -0.0054429611191 0 
-0.38308998942 -0.004546366632 0 -0.39569205046 -0.0034883399494 0 -0.4030893147 -0.0020680227317 0 
-0.40490031242 -0.00082288245903 0 -0.085699923337 0.00012403348228 0 -0.086670577526 0.0003438538406 0 
-0.087445005774 0.00058978341985 0 -0.088040657341 0.00081389432307 0 -0.088472440839 0.0010499199852 0 
-0.088759362698 0.0012714146869 0 -0.088918231428 0.0014964096481 0 -0.088966496289 0.0017111351481 0 
-0.088918849826 0.0019253847422 0 -0.088788628578 0.0021322034299 0 -0.088586196303 0.0023369649425 0 
-0.088319912553 0.0025362181477 0 -0.08799546212 0.0027328489814 0 -0.087616890669 0.0029250935186 0 
-0.087186209857 0.0031143270899 0 -0.086705125868 0.003299446078 0 -0.086174763739 0.0034806551412 0 
-0.085600204766 0.0036565396003 0 -0.084992147982 0.0038254193496 0 -0.084382668138 0.003983006347 0 
-0.083839677274 0.0041215736419 0 -0.08352521807 0.0042245164514 0 -0.083764180541 0.0042623882182 0 
-0.085225276649 0.004176476039 0 -0.089068189263 0.0038792288397 0 -0.097091861069 0.0032345233485 0 
-0.11123975366 0.0021514322143 0 -0.13280647993 0.00059087720001 0 -0.16111293435 -0.0012357652886 0 
-0.19277049601 -0.0029215442482 0 -0.22569274902 -0.0043272897601 0 -0.2583861053 -0.0053680846468 0 
-0.28966522217 -0.005995514337 0 -0.31860718131 -0.0062190145254 0 -0.34443363547 -0.0060272733681 0 
-0.36648383737 -0.005496868398 0 -0.38418439031 -0.0045968429185 0 -0.39703226089 -0.0035301467869 0 
-0.40459656715 -0.0020937884692 0 -0.4064874649 -0.00083347695181 0 -0.085955686867 0.00012594806321 0 
-0.086927250028 0.00034912567935 0 -0.087700739503 0.00059879414039 0 -0.088293932378 0.00082624598872 0 
-0.08872205019 0.001065737335 0 -0.089004524052 0.0012904235628 0 -0.0891584903 0.0015186145902 0 
-0.089201711118 0.0017363603693 0 -0.089149110019 0.0019536041655 0 -0.089014157653 0.0021633196156 0 
-0.08880726248 0.0023709493689 0 -0.088536776602 0.0025730289053 0 -0.088208332658 0.002772446489 0 
-0.087825842202 0.0029674794059 0 -0.087391197681 0.003159428481 0 -0.086905807257 0.0033473395742 0 
-0.086370438337 0.0035312154796 0 -0.085789248347 0.0037100734189 0 -0.085171498358 0.0038817822933 0 
-0.084545858204 0.004043255467 0 -0.083974204957 0.0041858167388 0 -0.083606161177 0.0042961118743 0 
-0.083745628595 0.0043425634503 0 -0.085027076304 0.004274379462 0 -0.088571727276 0.0039965868928 0 
-0.096165820956 0.0033862295095 0 -0.10981645435 0.0023202532902 0 -0.13095991313 0.00078480812954 0 
-0.15918360651 -0.0010712603107 0 -0.19106310606 -0.0028139420319 0 -0.22434078157 -0.0042606238276 0 
-0.25745883584 -0.0053457254544 0 -0.28918877244 -0.0060050562024 0 -0.31857773662 -0.0062534706667 0 
-0.34482523799 -0.0060757431202 0 -0.36725270748 -0.0055511067621 0 -0.38527259231 -0.0046477899887 0 
-0.39836966991 -0.0035724113695 0 -0.40610340238 -0.0021198638715 0 -0.40807551146 -0.00084419903578 0 
-0.086212292314 0.00012788733875 0 -0.087184742093 0.00035446457332 0 -0.087957240641 0.00060791813303 0 
-0.088547900319 0.00083875021664 0 -0.08897228539 0.0010817468865 0 -0.08925023675 0.0013096596813 0 
-0.089399240911 0.0015410822816 0 -0.089437395334 0.0017618816346 0 -0.089379817247 0.0019821545575 0 
-0.089240126312 0.0021948013455 0 -0.089028775692 0.002405337058 0 -0.088754102588 0.0026102773845 0 
-0.088421687484 0.0028125226963 0 -0.088035300374 0.0030103756581 0 -0.087596729398 0.0032050823793 0 
-0.08710706979 0.0033958060667 0 -0.08656680584 0.0035823881626 0 -0.085979193449 0.0037642070092 0 
-0.085352264345 0.0039387638681 0 -0.084711350501 0.0041040177457 0 -0.084113016725 0.004250512924 0 
-0.083694681525 0.0043678223155 0 -0.083740904927 0.0044225836173 0 -0.084851250052 0.0043714307249 0 
-0.088109269738 0.0041127172299 0 -0.095279239118 0.0035367084201 0 -0.10843218863 0.0024877728429 0 
-0.12913732231 0.00098132726271 0 -0.15722827613 -0.00090108020231 0 -0.18932457268 -0.002702931175 0 
-0.2229578197 -0.0041904267855 0 -0.25650170445 -0.0053210323676 0 -0.28868669271 -0.0060132695362 0 
-0.3185275197 -0.0062873270363 0 -0.3452013433 -0.0061242124066 0 -0.36801096797 -0.0056056599133 0 
-0.38635444641 -0.0046992087737 0 -0.39970421791 -0.0036151336972 0 -0.40760987997 -0.002146251034 0 
-0.40966445208 -0.00085504882736 0 -0.086469739676 0.00012985149806 0 -0.087443053722 0.00035987098818 0 
-0.088214501739 0.00061715615448 0 -0.088802561164 0.00085140787996 0 -0.089223131537 0.0010979496874 0 
-0.08949649334 0.0013291243231 0 -0.089640490711 0.0015638142359 0 -0.089673541486 0.0017877008067 0 
-0.089610978961 0.0020110392943 0 -0.089466542006 0.0022266516462 0 -0.08925075084 0.0024401322007 0 
-0.08897189796 0.0026479689404 0 -0.088635526597 0.0028530843556 0 -0.088245257735 0.0030537894927 0 
-0.087802790105 0.0032513001934 0 -0.087308898568 0.0034448555671 0 -0.086763851345 0.0036341929808 0 
-0.086170002818 0.0038189557381 0 -0.085534349084 0.0039964071475 0 -0.084879010916 0.0041653229855 0 
-0.084255799651 0.0043157702312 0 -0.083790309727 0.0044397064485 0 -0.083749182522 0.0045027644373 0 
-0.084696911275 0.0044677122496 0 -0.087679803371 0.0042286808603 0 -0.094432175159 0.003685839707 0 
-0.10708673298 0.0026585219894 0 -0.12734434009 0.0011758564506 0 -0.1552465409 -0.00072883360554 0 
-0.18755589426 -0.0025861177128 0 -0.22154358029 -0.0041167666204 0 -0.25551438332 -0.0052936016582 0 
-0.28815868497 -0.0060201203451 0 -0.31845629215 -0.0063205021434 0 -0.34556174278 -0.0061726709828 0 
-0.36875846982 -0.0056605148129 0 -0.38742995262 -0.0047511006705 0 -0.40103590488 -0.003658314934 0 
-0.40911591053 -0.0021729525179 0 -0.41125422716 -0.00086602685042 0 -0.086728014052 0.00013184071577 0 
-0.087702162564 0.00036534524406 0 -0.088472507894 0.00062650878681 0 -0.089057900012 0.00086421967717 0 
-0.089474581182 0.0011143464362 0 -0.089743286371 0.0013488183031 0 -0.089882224798 0.0015868117334 0 
-0.089910142124 0.0018138195155 0 -0.089842572808 0.0020402597729 0 -0.089693397284 0.002258873079 0 
-0.089473173022 0.0024753387552 0 -0.089190162718 0.0026861075312 0 -0.088849849999 0.0028941372875 0 
-0.088455721736 0.0030977267306 0 -0.088009379804 0.0032980900723 0 -0.087511301041 0.0034944966901 0 
-0.08696154505 0.0036866441369 0 -0.086361639202 0.0038743312471 0 -0.085717663169 0.004054736346 0 
-0.085048705339 0.0042271874845 0 -0.084402270615 0.0043816380203 0 -0.083892658353 0.0045117880218 0 
-0.083769738674 0.0045831920579 0 -0.084563441575 0.0045632198453 0 -0.087282545865 0.0043445620686 0 
-0.093625955284 0.0038334405981 0 -0.10577921569 0.0028330192436 0 -0.12557178736 0.0013686435996 0 
-0.15325008333 -0.00055546499789 0 -0.18575885892 -0.002462884644 0 -0.22009731829 -0.0040397876874 0 
-0.25449648499 -0.005263350904 0 -0.28760439157 -0.0060256239958 0 -0.31836384535 -0.0063529708423 0 
-0.34590622783 -0.0062211216427 0 -0.36949509382 -0.0057156695984 0 -0.38849896193 -0.0048034717329 0 
-0.40236464143 -0.0037019597366 0 -0.41062152386 -0.0021999720484 0 -0.41284486651 -0.00087713432731 0 
-0.086987115443 0.00013385506463 0 -0.087962068617 0.00037088757381 0 -0.088731251657 0.00063597632106 0 
-0.089313901961 0.00087718584109 0 -0.089726626873 0.0011309377151 0 -0.089990608394 0.0013687420869 0 
-0.090124443173 0.0016100750072 0 -0.090147182345 0.0018402384594 0 -0.090074598789 0.0020698176231 0 
-0.089920684695 0.0022914677393 0 -0.08969604224 0.002510958584 0 -0.089408896863 0.0027246968821 0 
-0.089064665139 0.0029356854502 0 -0.088666692376 0.0031421931926 0 -0.088216491044 0.0033454590011 0 
-0.087714262307 0.0035447366536 0 -0.087159879506 0.0037397507112 0 -0.086554072797 0.0039303428493 0 
-0.085902139544 0.0041137640364 0 -0.085220299661 0.0042896210216 0 -0.084552161396 0.0044481246732 0 
-0.08400131762 0.0045840651728 0 -0.083801798522 0.0046638101339 0 -0.08444994688 0.0046578673646 0 
-0.086916439235 0.0044598006643 0 -0.092860668898 0.0039790854789 0 -0.10451063514 0.0030083074234 0 
-0.12382170558 0.0015621731291 0 -0.15124091506 -0.00037829577923 0 -0.18393410742 -0.0023343262728 0 
-0.21861873567 -0.0039595239796 0 -0.25344771147 -0.0052303825505 0 -0.28702351451 -0.0060298107564 0 
-0.31824994087 -0.0063847326674 0 -0.34623467922 -0.006269576028 0 -0.37022075057 -0.0057711289264 0 
-0.38956144452 -0.0048563294113 0 -0.40369042754 -0.003746073693 0 -0.41212666035 -0.0022273133509 0 
-0.41443637013 -0.00088837312069 0 -0.087247028947 0.00013589461742 0 -0.088222756982 0.00037649806472 0 
-0.088990725577 0.00064555881545 0 -0.089570559561 0.00089030648815 0 -0.089979246259 0.0011477231747 0 
-0.090238444507 0.0013888954418 0 -0.090367116034 0.0016336041735 0 -0.090384669602 0.0018669578712 0 
-0.090307056904 0.0020997133106 0 -0.090148411691 0.0023244367912 0 -0.089919365942 0.0025469940156 0 
-0.089628092945 0.0027637395542 0 -0.089279957116 0.0029777323361 0 -0.088878162205 0.0031871935353 0 
-0.088424123824 0.0033934116364 0 -0.087917774916 0.0035955822095 0 -0.087358824909 0.0037935185246 0 
-0.086747273803 0.0039870003238 0 -0.086087696254 0.0041734972037 0 -0.085393674672 0.004352637101 0 
-0.084705196321 0.0045152371749 0 -0.084115840495 0.004656557925 0 -0.083844594657 0.0047446107492 0 
-0.084355384111 0.0047516655177 0 -0.086580321193 0.0045742415823 0 -0.092135682702 0.0041226064786 0 
-0.10328195989 0.0031836763956 0 -0.12209460884 0.0017564613372 0 -0.14922295511 -0.0001965706615 0 
-0.18208178878 -0.0022002889309 0 -0.21710768342 -0.0038759422023 0 -0.25236785412 -0.0051946546882 0 
-0.28641578555 -0.0060326773673 0 -0.31811439991 -0.0064157727174 0 -0.34654688835 -0.0063180373982 0 
-0.37093529105 -0.0058268969879 0 -0.390617311 -0.004909680225 0 -0.40501320362 -0.0037906635553 0 
-0.41363132 -0.0022549796849 0 -0.41602867842 -0.00089974526782 0 -0.087507747114 0.00013795935956 0 
-0.088484227657 0.0003821766586 0 -0.089250922203 0.00065525603713 0 -0.089827865362 0.00090358115267 0 
-0.090232439339 0.0011647022329 0 -0.09048678726 0.0014092777856 0 -0.090610258281 0.0016573984176 0 
-0.090622581542 0.0018939771689 0 -0.090539939702 0.0021299461368 0 -0.090376570821 0.0023577804677 0 
-0.09014312923 0.0025834452827 0 -0.089847758412 0.0028032374103 0 -0.089495740831 0.0030202800408 0 
-0.089090138674 0.0032327314839 0 -0.088632270694 0.0034419510048 0 -0.088121838868 0.0036470403429 0 
-0.087558358908 0.0038479515351 0 -0.086941212416 0.0040443129838 0 -0.086274258792 0.0042339381762 0 
-0.085568711162 0.0044162492268 0 -0.084861122072 0.0045829718001 0 -0.084235824645 0.0047292830423 0 
-0.083897396922 0.0048255627044 0 -0.084278710186 0.0048446166329 0 -0.086272969842 0.0046877176501 0 
-0.091450363398 0.0042638508603 0 -0.10209423304 0.0033585405909 0 -0.12039289623 0.0019513856387 0 
-0.1471991837 -9.5784780569e-06 0 -0.18020170927 -0.0020605609752 0 -0.21556389332 -0.0037890337408 0 
-0.25125661492 -0.005156098865 0 -0.28578099608 -0.0060342187062 0 -0.31795698404 -0.0064460705034 0 
-0.34684273601 -0.0063665066846 0 -0.37163862586 -0.005882977508 0 -0.39166653156 -0.0049635297619 0 
-0.40633291006 -0.0038357351441 0 -0.41513547301 -0.0022829740774 0 -0.41762182117 -0.00091125292238 0 
-0.087769262493 0.00014004921832 0 -0.088746465743 0.0003879230353 0 -0.089511819184 0.00066506752046 0 
-0.090085804462 0.00091700896155 0 -0.090486191213 0.0011818737257 0 -0.09073562175 0.0014298877213 0 
-0.090853840113 0.0016814561095 0 -0.090860918164 0.001921295072 0 -0.090773239732 0.0021605151705 0 
-0.090605154634 0.002391498303 0 -0.090367347002 0.0026203126181 0 -0.090067893267 0.0028431918472 0 
-0.089712001383 0.0030633292627 0 -0.089302621782 0.0032788107637 0 -0.088840939105 0.0034910794348 0 
-0.088326446712 0.0036991173401 0 -0.087758481503 0.0039030532353 0 -0.087135866284 0.0041022924706 0 
-0.086461760104 0.0042950916104 0 -0.085745275021 0.0044804792851 0 -0.085019700229 0.0046513373964 0 
-0.084360837936 0.0048022842966 0 -0.083959460258 0.0049066846259 0 -0.084218859673 0.0049367817119 0 
-0.085993103683 0.0048002307303 0 -0.090803839266 0.0044027226977 0 -0.10094819963 0.0035326643847 0 
-0.11871892959 0.0021463530138 0 -0.14517304301 0.00018305820413 0 -0.17829349637 -0.0019147583516 0 
-0.21398709714 -0.0036988651846 0 -0.25011375546 -0.0051145968027 0 -0.28511890769 -0.0060344170779 0 
-0.31777754426 -0.0064755957574 0 -0.34712201357 -0.006414975971 0 -0.37233069539 -0.0059393704869 0 
-0.392708987 -0.0050178789534 0 -0.40764954686 -0.003881293349 0 -0.41663908958 -0.002311298158 0 
-0.41921573877 -0.00092289817985 0 -0.088031567633 0.00014216406271 0 -0.089009456336 0.00039373678737 0 
-0.089773416519 0.0006749923341 0 -0.090344369411 0.00093058869243 0 -0.090740486979 0.0011992360232 0 
-0.090984940529 0.0014507231535 0 -0.091097861528 0.0017057750374 0 -0.091099672019 0.0019489096012 0 
-0.091006956995 0.0021914183162 0 -0.090834163129 0.0024255891331 0 -0.090591996908 0.0026575941592 0 
-0.090288490057 0.0028836030979 0 -0.089928753674 0.0031068804674 0 -0.089515611529 0.003325433936 0 
-0.089050121605 0.0035407987889 0 -0.088531590998 0.0037518201862 0 -0.087959170341 0.003958826419 0 
-0.087331198156 0.00416095322 0 -0.086650133133 0.004356962163 0 -0.08592326194 0.004545356147 0 
-0.085180684924 0.0047203432769 0 -0.084490500391 0.0048756166361 0 -0.084030084312 0.0049880021252 0 
-0.084174819291 0.0050282496959 0 -0.085739389062 0.0049118199386 0 -0.090195223689 0.0045391800813 0 
-0.099844284356 0.0037059180904 0 -0.11707537621 0.00234062667 0 -0.14314839244 0.00038164920988 0 
-0.17635647953 -0.0017624534667 0 -0.21237690747 -0.003605583217 0 -0.24893909693 -0.0050700171851 0 
-0.28442925215 -0.0060332440771 0 -0.31757587194 -0.0065043172799 0 -0.34738463163 -0.0064634289593 0 
-0.37301135063 -0.0059960763901 0 -0.3937446475 -0.0050727259368 0 -0.40896308422 -0.0039273425937 0 
-0.41814219952 -0.0023399521597 0 -0.42081049085 -0.00093468290288 0 -0.088294647634 0.00014430368901 0 
-0.089273199439 0.00039961724542 0 -0.090035691857 0.0006850293139 0 -0.090603530407 0.00094431865728 0 
-0.090995311737 0.0012167867972 0 -0.091234728694 0.0014717815211 0 -0.091342315078 0.0017303521745 0 
-0.091338843107 0.0019768173806 0 -0.091241076589 0.0022226523142 0 -0.091063603759 0.0024600503966 0 
-0.0908171013 0.0026952880435 0 -0.090509563684 0.0029244702309 0 -0.090145997703 0.0031509327237 0 
-0.089729100466 0.0033726033289 0 -0.089259818196 0.0035911099985 0 -0.088737279177 0.0038051554002 0 
-0.088160417974 0.0040152748115 0 -0.087527185678 0.0042203105986 0 -0.086839333177 0.0044195582159 0 
-0.086102567613 0.0046109152026 0 -0.085343882442 0.0047900080681 0 -0.084624446929 0.0049493596889 0 
-0.084108605981 0.0050695626996 0 -0.084145627916 0.0051191654056 0 -0.085510469973 0.0050225690939 0 
-0.08962354809 0.0046732868068 0 -0.098782509565 0.0038782584015 0 -0.11546482146 0.0025333755184 0 
-0.14112970233 0.000586344162 0 -0.17438976467 -0.0016032145359 0 -0.21073287725 -0.0035093920305 0 
-0.24773254991 -0.0050222300924 0 -0.28371179104 -0.0060306452215 0 -0.31735178828 -0.006532207597 0 
-0.34763038158 -0.0065118377097 0 -0.37368050218 -0.0060530942865 0 -0.39477345347 -0.0051280646585 0 
-0.41027343273 -0.0039738854393 0 -0.4196447134 -0.0023689358495 0 -0.42240598798 -0.00094660877949 0 
-0.088558487594 0.00014646783529 0 -0.089537665248 0.00040556356544 0 -0.090298645198 0.00069517688826 0 
-0.090863294899 0.000958196586 0 -0.091250658035 0.0012345230207 0 -0.091484971344 0.0014930592151 0 
-0.09158718586 0.0017551835626 0 -0.091578409076 0.0020050145686 0 -0.091475605965 0.0022542132065 0 
-0.09129345417 0.0024948786013 0 -0.091042645276 0.0027333910111 0 -0.090731106699 0.0029657911509 0 
-0.09036372602 0.003195483936 0 -0.089943110943 0.0034203194082 0 -0.089470028877 0.0036420132965 0 
-0.088943511248 0.0038591292687 0 -0.088362216949 0.0040724012069 0 -0.087723813951 0.0042803813703 0 
-0.087029315531 0.0044828876853 0 -0.086283102632 0.004677196499 0 -0.085509106517 0.0048603527248 0 
-0.084762342274 0.0050236079842 0 -0.084194421768 0.0051514152437 0 -0.084130376577 0.0052097295411 0 
-0.085305020213 0.0051325699314 0 -0.089087806642 0.0048052873462 0 -0.097762450576 0.0040496876463 0 
-0.11388973892 0.0027239599731 0 -0.13912211359 0.00079697667388 0 -0.17239205539 -0.0014367687982 0 
-0.20905458927 -0.0034104613587 0 -0.2464941442 -0.0049711293541 0 -0.28296622634 -0.0060265138745 0 
-0.31710514426 -0.006559245754 0 -0.34785911441 -0.0065601598471 0 -0.37433809042 -0.0061104227789 0 
-0.3957953155 -0.0051838872023 0 -0.4115806222 -0.0040209246799 0 -0.42114663124 -0.0023982480634 0 
-0.42400225997 -0.00095867714845 0 -0.088823087513 0.0001486561232 0 -0.089802853763 0.00041157464148 0 
-0.09056225419 0.00070543313632 0 -0.091123633087 0.00097221968463 0 -0.091506510973 0.0012524409685 0 
-0.09173566103 0.0015145519283 0 -0.091832466424 0.0017802640796 0 -0.091818362474 0.0020334962755 0 
-0.091710530221 0.0022860956378 0 -0.091523729265 0.0025300688576 0 -0.091268636286 0.0027718984056 0 
-0.090953119099 0.003007562831 0 -0.090581946075 0.0032405313104 0 -0.090157628059 0.003468581941 0 
-0.089680761099 0.0036935072858 0 -0.08915027231 0.0039137462154 0 -0.088564559817 0.0041302079335 0 
-0.087921060622 0.0043411813676 0 -0.087220042944 0.0045469584875 0 -0.086464785039 0.0047442419454 0 
-0.085676193237 0.0049313995987 0 -0.084903888404 0.0050984681584 0 -0.084286980331 0.0052336123772 0 
-0.084128201008 0.005300196819 0 -0.085121773183 0.0052419025451 0 -0.088586993515 0.0049356492236 0 
-0.096783295274 0.0042201583274 0 -0.1123521924 0.0029122389387 0 -0.13713060319 0.0010128024733 0 
-0.17036256194 -0.0012631103164 0 -0.2073417604 -0.0033087655902 0 -0.24522402883 -0.0049166786484 0 
-0.28219228983 -0.0060206674971 0 -0.31683570147 -0.0065854215063 0 -0.34807065129 -0.0066083404236 0 
-0.37498393655 -0.006168059539 0 -0.39681017399 -0.0052401819266 0 -0.41288456321 -0.0040684612468 0 
-0.42264795303 -0.0024278874043 0 -0.42559927702 -0.0009708890575 0 -0.08908841759 0.00015086814528 0 
-0.090068750083 0.00041764910566 0 -0.090826496482 0.00071579572977 0 -0.091384537518 0.00098638457712 0 
-0.091762848198 0.0012705364497 0 -0.091986782849 0.0015362545382 0 -0.092078134418 0.0018055881374 0 
-0.092058703303 0.0020622559823 0 -0.091945841908 0.0023182935547 0 -0.091754421592 0.0025656153448 0 
-0.091495066881 0.0028108041734 0 -0.091175600886 0.0030497806147 0 -0.090800665319 0.0032860701904 0 
-0.090372659266 0.0035173888318 0 -0.089892022312 0.0037455903366 0 -0.089357569814 0.0039690095 0 
-0.088767446578 0.0041886959225 0 -0.08811891824 0.0044027231634 0 -0.087411485612 0.0046117790043 0 
-0.086647547781 0.0048120878637 0 -0.085845030844 0.005003167782 0 -0.085048817098 0.00517404126 0 
-0.084385827184 0.0053161988035 0 -0.084138318896 0.0053908512928 0 -0.084959618747 0.0053506218828 0 
-0.088120043278 0.0050651812926 0 -0.095844171941 0.0043895249255 0 -0.11085315794 0.0031005553901 0 
-0.13516134024 0.0012308597798 0 -0.16829960048 -0.00108381873 0 -0.20559459925 -0.0032030835282 0 
-0.24392224848 -0.0048589040525 0 -0.28138971329 -0.0060127959587 0 -0.31654322147 -0.0066107199527 0 
-0.34826484323 -0.0066563142464 0 -0.37561798096 -0.006226001773 0 -0.39781796932 -0.0052969395183 0 
-0.41418522596 -0.0041164974682 0 -0.42414861917 -0.002457852941 0 -0.42719700933 -0.00098324543796 0 
-0.089354477823 0.00015310334857 0 -0.090335339308 0.00042378538637 0 -0.091091364622 0.00072626181645 0 
-0.091645985842 0.0010006872471 0 -0.092019662261 0.0012888042256 0 -0.0922383219 0.001558160875 0 
-0.092324189842 0.0018311487511 0 -0.092299424112 0.0020912864711 0 -0.092181548476 0.0023507990409 0 
-0.09198551625 0.0026015106123 0 -0.09172193706 0.0028501013294 0 -0.091398559511 0.0030924379826 0 
-0.091019891202 0.003332094755 0 -0.090588219464 0.0035667356569 0 -0.090103812516 0.003798258258 0 
-0.089565418661 0.0040249181911 0 -0.088970892131 0.004247865174 0 -0.088317386806 0.0044650146738 0 
-0.087603643537 0.0046773529612 0 -0.086831338704 0.004880762659 0 -0.086015507579 0.0050756749697 0 
-0.085196897388 0.0052504115738 0 -0.084490582347 0.0053992182948 0 -0.084160000086 0.005481950473 0 
-0.084817782044 0.0054588024504 0 -0.087686009705 0.0051947822794 0 -0.094945579767 0.0045577120036 0 
-0.10939224809 0.0032933554612 0 -0.13321645558 0.0014471805189 0 -0.16620533168 -0.00090234488016 0 
-0.2038140744 -0.0030911425129 0 -0.24258825183 -0.0047978614457 0 -0.28055810928 -0.0060025891289 0 
-0.31622740626 -0.0066351285204 0 -0.34844148159 -0.0067040314898 0 -0.37624007463 -0.0062842508778 0 
-0.3988186121 -0.0053541543894 0 -0.41548258066 -0.0041650366038 0 -0.42564862967 -0.0024881453719 0 
-0.42879542708 -0.00099574739579 0 -0.089621245861 0.00015536113642 0 -0.090602591634 0.00042998162098 0 
-0.09135684371 0.00073682819493 0 -0.091907963157 0.0010151232127 0 -0.092276930809 0.001307238359 0 
-0.092490263283 0.0015802637208 0 -0.092570617795 0.0018569377717 0 -0.092540502548 0.0021205788944 0 
-0.092417627573 0.0023836030159 0 -0.092217028141 0.0026377455797 0 -0.091949254274 0.0028897810262 0 
-0.091621994972 0.0031355265528 0 -0.091239608824 0.003378597321 0 -0.090804293752 0.0036166165955 0 
-0.090316139162 0.0038515056949 0 -0.0897738114 0.0040814699605 0 -0.089174896479 0.0043077128939 0 
-0.088516458869 0.0045280591585 0 -0.087796494365 0.0047436822206 0 -0.087016105652 0.0049502807669 0 
-0.086187556386 0.0051489276811 0 -0.085347905755 0.0053276158869 0 -0.084600932896 0.0054826843552 0 
-0.084192566574 0.0055735628121 0 -0.084695599973 0.0055664232932 0 -0.087284050882 0.0053244270384 0 
-0.094088807702 0.0047244513407 0 -0.1079691723 0.0034903895576 0 -0.13128870726 0.0016627172008 0 
-0.16408920288 -0.00071892642882 0 -0.20200143754 -0.0029727192596 0 -0.24122129381 -0.0047336802818 0 
-0.27969709039 -0.0059900134802 0 -0.31588789821 -0.0066586765461 0 -0.34860035777 -0.0067514814436 0 
-0.37685012817 -0.0063428189605 0 -0.39981207252 -0.0054118297994 0 -0.4167765677 -0.0042140847072 0 
-0.4271479249 -0.0025187665597 0 -0.4303945303 -0.0010083960369 0 -0.089888706803 0.00015764078125 0 
-0.090870499611 0.00043623562669 0 -0.091622903943 0.00074749108171 0 -0.092170447111 0.0010296871187 0 
-0.092534631491 0.0013258320978 0 -0.092742584646 0.0016025551595 0 -0.092817395926 0.0018829461187 0 
-0.092781938612 0.0021501237061 0 -0.092654086649 0.0024166954681 0 -0.092448934913 0.0026743095368 0 
-0.092177011073 0.0029298330192 0 -0.091845907271 0.0031790365465 0 -0.091459840536 0.0034255688079 0 
-0.091020904481 0.0036670228001 0 -0.090529002249 0.0039053251967 0 -0.089982755482 0.0041386592202 0 
-0.08937945962 0.0043682344258 0 -0.088716119528 0.0045918547548 0 -0.087990038097 0.0048107658513 0 
-0.087201811373 0.0050206454471 0 -0.086361095309 0.0052229273133 0 -0.085501648486 0.005405663047 0 
-0.084716536105 0.0055665951222 0 -0.084235340357 0.0056656608358 0 -0.084592215717 0.0056734215468 0 
-0.086913108826 0.0054536741227 0 -0.093273952603 0.0048893159255 0 -0.10658502579 0.0036888755858 0 
-0.12937964499 0.0018796307268 0 -0.16195333004 -0.00053116353229 0 -0.20015710592 -0.0028487094678 0 
-0.23982092738 -0.0046664024703 0 -0.27880629897 -0.005975139793 0 -0.31552448869 -0.0066813984886 0 
-0.34874135256 -0.0067986706272 0 -0.37744796276 -0.0064017223194 0 -0.40079823136 -0.0054699722677 0 
-0.41806715727 -0.004263649229 0 -0.42864650488 -0.0025497197639 0 -0.43199428916 -0.0010211926419 0 
-0.090156830847 0.00015994146816 0 -0.091139048338 0.00044254498789 0 -0.09188953042 0.00075824622763 0 
-0.092433422804 0.0010443729116 0 -0.092792749405 0.0013445776422 0 -0.092995271087 0.0016250258777 0 
-0.093064516783 0.0019091633148 0 -0.093023717403 0.0021799092647 0 -0.092890903354 0.0024500645231 0 
-0.092681251466 0.0027111908421 0 -0.092405214906 0.0029702452011 0 -0.092070296407 0.0032229560893 0 
-0.091680586338 0.0034729980398 0 -0.091238051653 0.003717944026 0 -0.09074242413 0.0039597079158 0 
-0.090192250907 0.0041964771226 0 -0.089584603906 0.0044294237159 0 -0.088916383684 0.0046563954093 0 
-0.088184274733 0.004878600128 0 -0.087388411164 0.0050918543711 0 -0.086536042392 0.0052976757288 0 
-0.085657916963 0.0054845511913 0 -0.084837056696 0.005650957115 0 -0.084287650883 0.0057582245208 0 
-0.0845066607 0.0057797902264 0 -0.086572013795 0.0055823251605 0 -0.092500478029 0.0050521120429 0 
-0.10524095595 0.0038879052736 0 -0.12748986483 0.0020981242415 0 -0.15980115533 -0.00033812009497 0 
-0.19828100502 -0.0027190225665 0 -0.23838688433 -0.0045959865674 0 -0.27788546681 -0.0059579485096 0 
-0.31513687968 -0.0067033092491 0 -0.34886425734 -0.0068455962464 0 -0.37803354859 -0.0064609758556 0 
-0.40177708864 -0.0055285897106 0 -0.41935431957 -0.0043137362227 0 -0.4301443398 -0.00258100871 0 
-0.43359464407 -0.0010341377929 0 -0.090425617993 0.0001622622658 0 -0.091408208013 0.0004489068815 0 
-0.092156708241 0.00076908885967 0 -0.092696860433 0.0010591738392 0 -0.0930512622 0.0013634663774 0 
-0.093248300254 0.0016476655146 0 -0.093311965466 0.0019355777185 0 -0.09326582402 0.0022099227645 0 
-0.093128077686 0.002483696444 0 -0.09291395545 0.00274837506 0 -0.092633850873 0.003011004068 0 
-0.09229516983 0.003267271677 0 -0.09190184623 0.0035208722111 0 -0.091455727816 0.0037693672348 0 
-0.090956404805 0.0040146424435 0 -0.090402320027 0.0042549124919 0 -0.089790314436 0.0044912723824 0 
-0.089117243886 0.0047216722742 0 -0.088379181921 0.0049471817911 0 -0.087575860322 0.0051638991572 0 
-0.08671233058 0.0053731733933 0 -0.085816524923 0.0055642700754 0 -0.084962144494 0.0057357759215 0 
-0.0843488276 0.0058512249961 0 -0.084437936544 0.0058855260722 0 -0.086259566247 0.0057102148421 0 
-0.091767773032 0.0052126613446 0 -0.10393815488 0.0040868008509 0 -0.12562161684 0.0023181180004 0 
-0.15763527155 -0.00013901745842 0 -0.19637277722 -0.002583444817 0 -0.23691880703 -0.0045224092901 0 
-0.27693423629 -0.005938381888 0 -0.31472489238 -0.0067244186066 0 -0.34896895289 -0.0068922508508 0 
-0.37860673666 -0.0065205888823 0 -0.40274855494 -0.0055876877159 0 -0.420637995 -0.0043643512763 0 
-0.43164137006 -0.0026126364246 0 -0.43519562483 -0.0010472316062 0 -0.090695023537 0.00016460212646 0 
-0.091677948833 0.00045531825162 0 -0.0924243927 0.00078001368092 0 -0.092960737646 0.0010740826838 0 
-0.093310147524 0.0013824887574 0 -0.093501657248 0.0016704626614 0 -0.093559719622 0.0019621762913 0 
-0.093508251011 0.0022401500028 0 -0.093365602195 0.0025175763294 0 -0.093147054315 0.0027858468238 0 
-0.092862926424 0.0030520935543 0 -0.092520520091 0.0033119670115 0 -0.092123620212 0.0035691764206 0 
-0.091673955321 0.0038212779909 0 -0.091170944273 0.0040701166727 0 -0.090612947941 0.0043139522895 0 
-0.089996621013 0.0045537715778 0 -0.089318700135 0.0047876741737 0 -0.088574774563 0.0050165071152 0 
-0.087764136493 0.0052367714234 0 -0.086889885366 0.0054494268261 0 -0.085977293551 0.0056448155083 0 
-0.085091479123 0.0058210748248 0 -0.084418229759 0.0059446641244 0 -0.084385044873 0.005990665406 0 
-0.085974477232 0.0058373166248 0 -0.091074995697 0.0053708399646 0 -0.1026775986 0.0042852354236 0 
-0.12377729267 0.0025391012896 0 -0.15545867383 6.66322303e-05 0 -0.19443185627 -0.0024415955413 0 
-0.23541624844 -0.0044456999749 0 -0.27595233917 -0.0059163407423 0 -0.31428828835 -0.0067447274923 0 
-0.34905529022 -0.0069386186078 0 -0.37916743755 -0.0065805679187 0 -0.40371260047 -0.0056472718716 0 
-0.42191818357 -0.0044154962525 0 -0.43313762546 -0.0026446057018 0 -0.43679717183 -0.001060473267 0 
-0.090965040028 0.00016695990053 0 -0.091948263347 0.00046177566401 0 -0.092692583799 0.00079101475421 0 
-0.093225032091 0.0010890908306 0 -0.093569383025 0.0014016341884 0 -0.093755312264 0.0016934047453 0 
-0.093807756901 0.0019889445975 0 -0.093750976026 0.00227057538 0 -0.093603469431 0.0025516878814 0 
-0.093380533159 0.0028235886712 0 -0.093092434108 0.0030934968963 0 -0.09274635464 0.0033570248634 0 
-0.092345915735 0.0036178939044 0 -0.091892726719 0.003873659065 0 -0.091386049986 0.0041261157021 0 
-0.09082416445 0.00437358208 0 -0.090203516185 0.004616911523 0 -0.089520759881 0.0048543890007 0 
-0.088771037757 0.0050865737721 0 -0.087953209877 0.0053104618564 0 -0.087068647146 0.005526445806 0 
-0.086140051484 0.0057261837646 0 -0.085224747658 0.0059068868868 0 -0.08449523896 0.0060385563411 0 
-0.08434702456 0.0060952692293 0 -0.085715450346 0.0059636551887 0 -0.090421274304 0.0055265566334 0 
-0.10146000981 0.0044830106199 0 -0.12195957452 0.0027603700291 0 -0.15327464044 0.0002792456944 0 
-0.19245748222 -0.0022930251434 0 -0.23387873173 -0.0043659568764 0 -0.27493947744 -0.0058917044662 0 
-0.313826859 -0.0067642326467 0 -0.34912312031 -0.0069846818224 0 -0.37971556187 -0.0066409120336 0 
-0.40466916561 -0.0057073463686 0 -0.42319482565 -0.0044671711512 0 -0.43463301659 -0.0026769188698 0 
-0.43839928508 -0.0010738606798 0 -0.091235637665 0.00016933429288 0 -0.092219106853 0.00046827533515 0 
-0.092961229384 0.00080208556028 0 -0.093489706516 0.0011041894322 0 -0.093828931451 0.0014208910288 0 
-0.094009250402 0.00171647768 0 -0.094056069851 0.0020158670377 0 -0.093993991613 0.0023011812009 0 
-0.093841657043 0.0025860122405 0 -0.093614391983 0.0028615812771 0 -0.093322381377 0.0031351940706 0 
-0.092972666025 0.0034024252091 0 -0.092568732798 0.0036670060363 0 -0.09211204946 0.0039264913648 0 
-0.091601744294 0.0041826236993 0 -0.091035962105 0.0044337841682 0 -0.090411022305 0.0046806805767 0 
-0.089723423123 0.0049218023196 0 -0.088967964053 0.0051573789679 0 -0.08814304322 0.0053849620745 0 
-0.087248541415 0.0056042461656 0 -0.08630464226 0.0058083771728 0 -0.085361644626 0.005993263796 0 
-0.084579259157 0.0061329323798 0 -0.084322951734 0.0061994395219 0 -0.085481137037 0.0060893069021 0 
-0.089805625379 0.0056797894649 0 -0.10028575361 0.0046800351702 0 -0.12017121166 0.0029810625128 0 
-0.15108700097 0.00049914780539 0 -0.19044862688 -0.0021372390911 0 -0.23230570555 -0.0042833480984 0 
-0.27389541268 -0.0058643440716 0 -0.31334030628 -0.0067829177715 0 -0.34917232394 -0.0070304237306 0 
-0.38025105 -0.0067016128451 0 -0.40561822057 -0.0057679144666 0 -0.42446792126 -0.0045193727128 0 
-0.43612757325 -0.0027095773257 0 -0.44000190496 -0.0010873909341 0 -0.091506786644 0.00017172390653 0 
-0.092490464449 0.00047481319052 0 -0.093230322003 0.00081321911421 0 -0.09375474602 0.0011193684768 0 
-0.0940887779 0.0014402464731 0 -0.094263441861 0.0017396663316 0 -0.09430462867 0.0020429259166 0 
-0.094237275422 0.0023319486063 0 -0.094080157578 0.0026205291506 0 -0.093848623335 0.0028998034541 0 
-0.093552745879 0.0031771641225 0 -0.093199454248 0.0034481463954 0 -0.092792078853 0.0037164916284 0 
-0.092331930995 0.0039797541685 0 -0.091818019748 0.0042396215722 0 -0.091248355806 0.004494539462 0 
-0.090619139373 0.0047450652346 0 -0.089926697314 0.0049898996949 0 -0.089165568352 0.0052289213054 0 
-0.088333621621 0.0054602632299 0 -0.087429523468 0.0056828479283 0 -0.086470931768 0.0058914013207 0 
-0.085501916707 0.0060802730732 0 -0.084669746459 0.0062278327532 0 -0.084311962128 0.0063033234328 0 
-0.08527020365 0.0062143709511 0 -0.089227050543 0.0058306283318 0 -0.099154807627 0.0048762885854 0 
-0.118414931 0.0032002760563 0 -0.14890012145 0.00072653527604 0 -0.18840400875 -0.0019737521652 0 
-0.23069655895 -0.004198085051 0 -0.27281999588 -0.0058341375552 0 -0.31282842159 -0.0068007409573 0 
-0.34920278192 -0.0070758331567 0 -0.38077375293 -0.0067626521923 0 -0.40655970573 -0.0058289798908 0 
-0.42573741078 -0.0045720944181 0 -0.43762126565 -0.0027425822336 0 -0.44160500169 -0.0011010604212 0 
-0.091778449714 0.00017412719899 0 -0.092762291431 0.00048138468992 0 -0.093499809504 0.00082440755796 0 
-0.094020105898 0.0011346171377 0 -0.094348877668 0.0014596867841 0 -0.094517864287 0.0017629544018 0 
-0.094553418458 0.0020701028407 0 -0.09448081255 0.0023628566414 0 -0.094318963587 0.0026552169584 0 
-0.094083212316 0.0029382321518 0 -0.093783542514 0.0032193830702 0 -0.093426726758 0.0034941637423 0 
-0.093015953898 0.0037663276307 0 -0.092552378774 0.0040334234945 0 -0.092034891248 0.0042970888317 0 
-0.091461353004 0.0045558270067 0 -0.090827874839 0.0048100510612 0 -0.090130597353 0.0050586638972 0 
-0.089363850653 0.0053011970595 0 -0.088524952531 0.0055363560095 0 -0.087611556053 0.0057622734457 0 
-0.08663880825 0.0059752617963 0 -0.085645325482 0.0061679943465 0 -0.084766194224 0.0063232975081 0 
-0.084313228726 0.0064071151428 0 -0.085081316531 0.0063389437273 0 -0.088684484363 0.0059793214314 0 
-0.098066695035 0.0050717727281 0 -0.11669325083 0.0034172725864 0 -0.14671891928 0.00096132187173 0 
-0.18632212281 -0.0018021942815 0 -0.22905066609 -0.0041103381664 0 -0.27171322703 -0.0058009861968 0 
-0.31229090691 -0.0068176132627 0 -0.34921431541 -0.0071209035814 0 -0.38128361106 -0.0068240012042 0 
-0.40749362111 -0.0058905454352 0 -0.42700329423 -0.0046253278852 0 -0.43911403418 -0.0027759340592 0 
-0.44320857525 -0.0011148647172 0 -0.092050611973 0.00017654249677 0 -0.093034572899 0.00048798500211 0 
-0.093769669533 0.00083564262604 0 -0.0942857638 0.0011499237735 0 -0.094609215856 0.0014791970607 0 
-0.094772487879 0.0017863237299 0 -0.09480240196 0.0020973770879 0 -0.094724588096 0.0023938831873 0 
-0.094558060169 0.0026900514495 0 -0.094318151474 0.0029768419918 0 -0.094014748931 0.0032618253026 0 
-0.093654476106 0.0035404514056 0 -0.093240365386 0.0038164877333 0 -0.092773400247 0.0040874737315 0 
-0.092252358794 0.004355001729 0 -0.09167496115 0.0046176235192 0 -0.091037251055 0.0048756203614 0 
-0.090335130692 0.0051280763 0 -0.089562818408 0.0053742006421 0 -0.088717013597 0.0056132301688 0 
-0.087794601917 0.0058425450698 0 -0.086808182299 0.0060599655844 0 -0.085791662335 0.0062565174885 0 
-0.084868170321 0.0064193713479 0 -0.084326021373 0.0065110679716 0 -0.084913261235 0.006463129539 0 
-0.088176906109 0.0061263786629 0 -0.097020700574 0.0052665192634 0 -0.115008533 0.0036319273058 0 
-0.14454914629 0.0012028209167 0 -0.18420121074 -0.0016225697473 0 -0.22736747563 -0.0040200920776 0 
-0.27057507634 -0.0057648401707 0 -0.311727494 -0.0068333810195 0 -0.34920677543 -0.0071656387299 0 
-0.38178050518 -0.0068856207654 0 -0.40841987729 -0.0059526138939 0 -0.42826554179 -0.0046790628694 0 
-0.44060584903 -0.0028096323367 0 -0.44481253624 -0.0011287993984 0 -0.092323221266 0.00017896799545 0 
-0.093307249248 0.00049460883019 0 -0.094039864838 0.00084691517986 0 -0.094551667571 0.0011652759276 0 
-0.094869755208 0.0014987612376 0 -0.095027275383 0.0018097553402 0 -0.095051571727 0.0021247270051 0 
-0.094968572259 0.0024250040296 0 -0.094797424972 0.0027250065468 0 -0.094553433359 0.0030156052671 0 
-0.094246372581 0.0033044626471 0 -0.093882702291 0.0035869800486 0 -0.093465298414 0.0038669437636 0 
-0.092994987965 0.0041418760084 0 -0.092470444739 0.0044133337215 0 -0.091889210045 0.0046799024567 0 
-0.091247275472 0.0049417517148 0 -0.090540319681 0.0051981150173 0 -0.089762486517 0.0054479232058 0 
-0.088909827173 0.0056908722036 0 -0.087978646159 0.0059236790985 0 -0.08697899431 0.0061455145478 0 
-0.085940748453 0.0063459244557 0 -0.08497530967 0.0065160850063 0 -0.084349639714 0.0066154394299 0 
-0.084764920175 0.0065869698301 0 -0.087703242898 0.0062724701129 0 -0.096015669405 0.0054603251629 0 
-0.11336208135 0.0038451179862 0 -0.14239384234 0.0014493401395 0 -0.18204149604 -0.0014352909056 0 
-0.22564692795 -0.0039268117398 0 -0.26940566301 -0.0057257506996 0 -0.31113794446 -0.0068478034809 0 
-0.34918004274 -0.0072100455873 0 -0.38226434588 -0.006947465241 0 -0.40933844447 -0.0060151880607 0 
-0.42952409387 -0.0047332900576 0 -0.44209671021 -0.0028436772991 0 -0.44641688466 -0.001142860041 0 
-0.092596247792 0.00018140174507 0 -0.093580305576 0.00050125067355 0 -0.094310350716 0.00085821561515 0 
-0.094817794859 0.0011806599796 0 -0.095130443573 0.0015183618525 0 -0.095282196999 0.0018332285108 0 
-0.095300883055 0.0021521288436 0 -0.095212750137 0.0024561928585 0 -0.095037043095 0.002760054078 0 
-0.094789043069 0.0030544926412 0 -0.094478398561 0.0033472641371 0 -0.094111397862 0.003633718472 0 
-0.093690767884 0.0039176642895 0 -0.093217164278 0.0041965991259 0 -0.092689141631 0.0044720554724 0 
-0.09210409224 0.004742635414 0 -0.09145797044 0.005008420907 0 -0.090746194124 0.0052687563002 0 
-0.089962869883 0.0055223507807 0 -0.089103400707 0.0057692662813 0 -0.088163673878 0.0060056848451 0 
-0.087151199579 0.0062319072895 0 -0.086092419922 0.0064362874255 0 -0.085087329149 0.0066134724766 0 
-0.084383428097 0.0067205084488 0 -0.084635473788 0.0067105595954 0 -0.087262429297 0.0064187492244 0 
-0.095051601529 0.0056531825103 0 -0.11175393313 0.0040632658638 0 -0.14026381075 0.0016947775148 0 
-0.17983776331 -0.0012444294989 0 -0.22388939559 -0.0038275618572 0 -0.26820451021 -0.0056836963631 0 
-0.31052187085 -0.0068605407141 0 -0.34913384914 -0.0072541157715 0 -0.38273501396 -0.0070094941184 0 
-0.41024926305 -0.0060782721266 0 -0.43077895045 -0.0047880029306 0 -0.4435865283 -0.0028780691791 0 
-0.44802156091 -0.0011570432689 0 -0.092869654298 0.00018384165014 0 -0.09385368228 0.00050790433306 0 
-0.094581097364 0.00086953357095 0 -0.095084100962 0.0011960617267 0 -0.095391266048 0.0015379806282 0 
-0.095537222922 0.0018567212392 0 -0.095550313592 0.0021795574576 0 -0.095457091928 0.0024874217343 0 
-0.095276899636 0.0027951642405 0 -0.095024973154 0.0030934724491 0 -0.094710819423 0.0033901971765 0 
-0.09434056282 0.0036806329153 0 -0.093916773796 0.0039686155505 0 -0.093439921737 0.0042516090907 0 
-0.092908464372 0.0045311343856 0 -0.092319637537 0.0048057893291 0 -0.091669343412 0.0050755995326 0 
-0.090952754021 0.0053399722092 0 -0.090163983405 0.0055974633433 0 -0.089297771454 0.0058483914472 0 
-0.088349685073 0.0060885604471 0 -0.087324775755 0.0063191349618 0 -0.086246550083 0.0065276417881 0 
-0.085203997791 0.006711543072 0 -0.08442685008 0.0068264007568 0 -0.084524355829 0.0068339221179 0 
-0.086853690445 0.006565536838 0 -0.094130255282 0.0058449902572 0 -0.11018333584 0.0042883120477 0 
-0.13814590871 0.0019389993977 0 -0.17760388553 -0.0010523020755 0 -0.22209611535 -0.0037211950403 0 
-0.26697060466 -0.0056388173252 0 -0.30987888575 -0.0068715019152 0 -0.3490678966 -0.0072978832759 0 
-0.38319242001 -0.0070716994815 0 -0.41115227342 -0.0061418791302 0 -0.43203005195 -0.0048431996256 0 
-0.44507533312 -0.0029128098395 0 -0.44962650537 -0.0011713467538 0 -0.09314339608 0.00018628548423 0 
-0.094127349555 0.00051456358051 0 -0.094852052629 0.0008808579878 0 -0.095350541174 0.0012114655692 0 
-0.095652163029 0.0015575977741 0 -0.0957923159 0.0018802100094 0 -0.095799833536 0.0022069856059 0 
-0.09570158273 0.0025186610874 0 -0.095516979694 0.0028303046711 0 -0.095261201262 0.0031325102318 0 
-0.094943627715 0.0034332259092 0 -0.094570197165 0.0037276865914 0 -0.094143308699 0.0040197600611 0 
-0.093663260341 0.0043068691157 0 -0.093128427863 0.0045905341394 0 -0.092535845935 0.0048693302087 0 
-0.091881416738 0.005143255461 0 -0.091160044074 0.0054117324762 0 -0.090365856886 0.005673235748 0 
-0.089492946863 0.0059282230213 0 -0.088536672294 0.0061722914688 0 -0.087499707937 0.0064071798697 0 
-0.086403027177 0.0066199903376 0 -0.085325106978 0.0068102818914 0 -0.08447933197 0.0069331028499 0 
-0.084430865943 0.0069569717161 0 -0.086476035416 0.0067123533227 0 -0.093252249062 0.0060351421125 0 
-0.10865154862 0.0045162751339 0 -0.13604280353 0.002185249934 0 -0.17534041405 -0.00085576111451 0 
-0.22026741505 -0.0036090963986 0 -0.26570335031 -0.0055912379175 0 -0.30920863152 -0.0068807839416 0 
-0.34898197651 -0.0073414044455 0 -0.38363644481 -0.0071340962313 0 -0.41204744577 -0.0062060286291 0 
-0.43327739835 -0.0048988843337 0 -0.44656303525 -0.0029479018413 0 -0.45123168826 -0.0011857693316 0 
-0.093417428434 0.00018873087538 0 -0.09440125525 0.00052122143097 0 -0.095123164356 0.00089217716595 0 
-0.095617070794 0.0012268553255 0 -0.095913104713 0.0015771924518 0 -0.096047438681 0.0019036700251 0 
-0.096049413085 0.0022343848832 0 -0.095946185291 0.0025498787872 0 -0.095757253468 0.0028654409107 0 
-0.095497719944 0.0031715696678 0 -0.095176815987 0.003476312384 0 -0.094800285995 0.0037748406176 0 
-0.094370380044 0.0040710587054 0 -0.093887202442 0.0043623396195 0 -0.093349032104 0.0046502156183 0 
-0.092752747238 0.004933219403 0 -0.09209420532 0.0052113514394 0 -0.091368071735 0.0054840026423 0 
-0.090568505228 0.005749637261 0 -0.089688956738 0.0060087335296 0 -0.088724642992 0.0062568560243 0 
-0.087675988674 0.0064960215241 0 -0.086561724544 0.0067133200355 0 -0.085450418293 0.0069096772932 0 
-0.084540314972 0.0070405998267 0 -0.084354154766 0.0070796958171 0 -0.08612831682 0.00685899565 0 
-0.092417173088 0.0062234229408 0 -0.10715969652 0.0047459271736 0 -0.13395376503 0.0024340478703 0 
-0.17305104434 -0.00065363646718 0 -0.21840322018 -0.0034913087729 0 -0.26440235972 -0.0055409325287 0 
-0.30851081014 -0.0068884077482 0 -0.34887591004 -0.0073847183958 0 -0.38406699896 -0.0071966969408 0 
-0.41293472052 -0.0062707392499 0 -0.43452095985 -0.00495506078 0 -0.44804960489 -0.00298334728 0 
-0.45283704996 -0.001200310071 0 -0.093691706657 0.00019117532065 0 -0.09467535466 0.00052787078312 0 
-0.095394395292 0.00090347864898 0 -0.095883637667 0.0012422137661 0 -0.096174038947 0.0015967426589 0 
-0.096302554011 0.0019270747434 0 -0.096299014986 0.0022617250215 0 -0.096190877259 0.0025810417719 0 
-0.095997698605 0.0029005364049 0 -0.095734506845 0.0032106121071 0 -0.095410369337 0.0035194156226 0 
-0.09503082931 0.0038220526185 0 -0.094597972929 0.0041224677116 0 -0.094111740589 0.0044179772958 0 
-0.093570291996 0.0047101359814 0 -0.092970341444 0.0049974159338 0 -0.092307731509 0.0052798488177 0 
-0.091576874256 0.0055567459203 0 -0.090771950781 0.0058266329579 0 -0.089885830879 0.0060898922384 0 
-0.088913612068 0.0063422233798 0 -0.087853603065 0.0065856357105 0 -0.086722545326 0.0068076048046 0 
-0.085579715669 0.0070097101852 0 -0.084609270096 0.0071488437243 0 -0.084293343127 0.0072020590305 0 
-0.085809379816 0.0070052170195 0 -0.091624572873 0.0064095966518 0 -0.10570926964 0.0049762222916 0 
-0.1318808645 0.0026856618933 0 -0.17073781788 -0.00044484622777 0 -0.216503039 -0.0033677380998 0 
-0.26306718588 -0.0054878657684 0 -0.30778503418 -0.0068943626247 0 -0.3487495482 -0.0074278577231 0 
-0.38448402286 -0.0072595099919 0 -0.41381409764 -0.0063360277563 0 -0.43576070666 -0.0050117322244 0 
-0.44953504205 -0.0030191470869 0 -0.45444256067 -0.0012149686227 0 -0.093966178596 0.00019361615705 0 
-0.09494958818 0.00053450401174 0 -0.095665693283 0.00091474934015 0 -0.096150197089 0.0012575227302 0 
-0.096434921026 0.0016162248794 0 -0.096557602286 0.0019503963413 0 -0.096548594534 0.0022889738902 0 
-0.096435628831 0.0026121141855 0 -0.096238300204 0.0029355527367 0 -0.095971547067 0.0032495961059 0 
-0.095644265413 0.0035624925513 0 -0.095261819661 0.0038692781236 0 -0.094826102257 0.0041739419103 0 
-0.094336874783 0.004473736044 0 -0.093792207539 0.0047702486627 0 -0.093188650906 0.0050618755631 0 
-0.092522010207 0.005348702427 0 -0.091786466539 0.0056299222633 0 -0.090976215899 0.0059041827917 0 
-0.090083599091 0.0061716656201 0 -0.089103579521 0.0064283614047 0 -0.088032528758 0.0066759996116 0 
-0.086885385215 0.0069028167054 0 -0.085712768137 0.0071103712544 0 -0.084685660899 0.0072578107938 0 
-0.084247529507 0.0073240674101 0 -0.085517987609 0.0071509326808 0 -0.090873658657 0.0065935128368 0 
-0.10430151969 0.0052066338249 0 -0.12982618809 0.0029398007318 0 -0.16840313375 -0.00022872482077 0 
-0.21456621587 -0.0032380637713 0 -0.26169738173 -0.0054320199415 0 -0.30703100562 -0.0068985908292 0 
-0.34860271215 -0.0074708494358 0 -0.38488745689 -0.0073225377128 0 -0.41468554735 -0.0064019090496 0 
-0.43699666858 -0.0050689023919 0 -0.45101928711 -0.0030553003307 0 -0.45604813099 -0.001229744521 0 
-0.094240792096 0.0001960505906 0 -0.095223911107 0.00054111314239 0 -0.095936998725 0.00092597556068 0 
-0.096416696906 0.0012727631256 0 -0.096695698798 0.001635614899 0 -0.096812561154 0.0019736054819 0 
-0.096798121929 0.0023160977289 0 -0.096680402756 0.0026430585422 0 -0.096479021013 0.0029704491608 0 
-0.096208818257 0.0032884783577 0 -0.095878504217 0.0036054970697 0 -0.095493242145 0.0039164698683 0 
-0.095054745674 0.0042254314758 0 -0.094562612474 0.0045295674354 0 -0.094014786184 0.0048305047676 0 
-0.093407690525 0.0051265507936 0 -0.092737056315 0.005417865701 0 -0.091996870935 0.0057034892961 0 
-0.091181337833 0.0059822448529 0 -0.090282283723 0.0062540206127 0 -0.089294552803 0.0065152328461 0 
-0.088212773204 0.0067670913413 0 -0.087050147355 0.0069989273325 0 -0.085849367082 0.0072116577066 0 
-0.084768988192 0.0073674828745 0 -0.084215834737 0.0074457367882 0 -0.085252895951 0.007296110969 0 
-0.090163618326 0.0067750299349 0 -0.10293758661 0.0054368032143 0 -0.1277923733 0.0031959442422 0 
-0.16604946554 -4.6950603974e-06 0 -0.21259188652 -0.0031018732116 0 -0.26029235125 -0.0053734257817 0 
-0.30624842644 -0.006901008077 0 -0.3484352231 -0.0075137168169 0 -0.38527724147 -0.0073857773095 0 
-0.41554906964 -0.0064683915116 0 -0.43822878599 -0.0051265712827 0 -0.45250231028 -0.0030918035191 0 
-0.45765373111 -0.0012446376495 0 -0.094515495002 0.00019847568183 0 -0.095498263836 0.00054768973496 0 
-0.096208259463 0.00093714275863 0 -0.096683070064 0.0012879148126 0 -0.096956327558 0.0016548866406 0 
-0.09706736356 0.0019966717809 0 -0.097047559917 0.0023430611473 0 -0.096925161779 0.0026738354936 0 
-0.096719838679 0.0030051821377 0 -0.096446298063 0.0033272127621 0 -0.096113063395 0.0036483805161 0 
-0.095725089312 0.0039635770954 0 -0.095283910632 0.0042768856511 0 -0.094788953662 0.0045854193158 0 
-0.094238042831 0.0048908516765 0 -0.093627467752 0.0051913904026 0 -0.092952892184 0.0054872883484 0 
-0.092208124697 0.0057774018496 0 -0.091387331486 0.0060607730411 0 -0.09048192203 0.0063369208947 0 
-0.089486546814 0.0066027995199 0 -0.088394321501 0.0068588913418 0 -0.087216757238 0.0070959092118 0 
-0.085989303887 0.0073135765269 0 -0.084858760238 0.0074778618291 0 -0.084197409451 0.0075671118684 0 
-0.085012815893 0.007440789137 0 -0.089493483305 0.0069540468976 0 -0.1016183272 0.0056665153243 0 
-0.12578216195 0.0034533531871 0 -0.16367967427 0.00022773465025 0 -0.21057900786 -0.0029586781748 0 
-0.25885152817 -0.005312172696 0 -0.305436939 -0.0069015091285 0 -0.34824693203 -0.0075564803556 0 
-0.38565334678 -0.0074492250569 0 -0.41640460491 -0.0065354811959 0 -0.43945708871 -0.0051847402938 0 
-0.45398408175 -0.0031286510639 0 -0.45925933123 -0.0012596478919 0 -0.094790220261 0.00020088834572 0 
-0.095772586763 0.00055422505829 0 -0.096479408443 0.00094823597465 0 -0.096949271858 0.0013029569527 0 
-0.097216740251 0.0016740135616 0 -0.097321972251 0.0020195625257 0 -0.097296848893 0.0023698271252 0 
-0.097169883549 0.002704403596 0 -0.0969607234 0.0030397067312 0 -0.096683956683 0.0033657513559 0 
-0.096347928047 0.0036910921335 0 -0.095957346261 0.0040105464868 0 -0.09551358968 0.0043282485567 0 
-0.095015890896 0.004641235806 0 -0.094461984932 0.0049512335099 0 -0.093847997487 0.0052563413046 0 
-0.093169540167 0.0055569158867 0 -0.092420250177 0.0058516119607 0 -0.091594234109 0.0061397189274 0 
-0.090682528913 0.0064203301445 0 -0.089679591358 0.0066910213791 0 -0.08857717365 0.0069513828494 0 
-0.087385140359 0.007193738129 0 -0.086132414639 0.0074161477387 0 -0.08495452255 0.0075889569707 0 
-0.084191441536 0.0076882634312 0 -0.084796458483 0.0075850407593 0 -0.088862270117 0.0071305111051 0 
-0.10034428537 0.0058956486173 0 -0.12379842997 0.0037111390848 0 -0.1612970531 0.0004690096539 0 
-0.2085262984 -0.0028079380281 0 -0.25737416744 -0.0052484082989 0 -0.30459630489 -0.0068999798968 0 
-0.34803766012 -0.0075991516933 0 -0.38601568341 -0.0075128762983 0 -0.41725218296 -0.0066031771712 0 
-0.44068160653 -0.0052434075624 0 -0.45546460152 -0.0031658345833 0 -0.46086484194 -0.0012747753644 0 
-0.095064915717 0.00020328540995 0 -0.096046820283 0.0005607099738 0 -0.096750386059 0.00095923937624 0 
-0.097215235233 0.0013178677764 0 -0.097476892173 0.0016929674894 0 -0.097576335073 0.0020422446541 0 
-0.097545959055 0.0023963567801 0 -0.097414508462 0.0027347200084 0 -0.097201637924 0.0030739759095 0 
-0.096921779215 0.0034040429164 0 -0.096583068371 0.0037335774396 0 -0.096190005541 0.0040573230945 0 
-0.095743767917 0.0043794624507 0 -0.095243439078 0.004696959164 0 -0.094686605036 0.005011589732 0 
-0.094069287181 0.0053213462234 0 -0.093387007713 0.0056266915053 0 -0.092633269727 0.0059260679409 0 
-0.091802068055 0.0062190308236 0 -0.090884156525 0.0065042097121 0 -0.089873701334 0.0067798565142 0 
-0.088761337101 0.0070445523597 0 -0.087555237114 0.007292390801 0 -0.086278520525 0.0075194034725 0 
-0.085055865347 0.0077007864602 0 -0.084197178483 0.007809300907 0 -0.084602512419 0.007728964556 0 
-0.088268913329 0.0073044537567 0 -0.099115684628 0.0061241560616 0 -0.12184408307 0.0039683217183 0 
-0.15890546143 0.00071949762059 0 -0.20643226802 -0.0026490895543 0 -0.25585958362 -0.0051823263057 0 
-0.3037262857 -0.0068963072263 0 -0.34780716896 -0.0076417280361 0 -0.38636425138 -0.0075767324306 0 
-0.41809180379 -0.0066714710556 0 -0.44190227985 -0.0053025730886 0 -0.45694378018 -0.0032033426687 0 
-0.46247020364 -0.0012900201837 0 -0.095339514315 0.00020566351304 0 -0.09632088989 0.00056713499362 0 
-0.097021125257 0.00097013666527 0 -0.097480900586 0.0013326244662 0 -0.09773670882 0.0017117193202 0 
-0.09783038497 0.0020646830089 0 -0.09779483825 0.0024226098321 0 -0.097659014165 0.002764739329 0 
-0.097442552447 0.0031079400796 0 -0.097159735858 0.0034420348238 0 -0.096818469465 0.0037757807877 0 
-0.096423044801 0.004103846848 0 -0.095974445343 0.0044304658659 0 -0.095471575856 0.0047525269911 0 
-0.094911925495 0.0050718588755 0 -0.094291366637 0.0053863436915 0 -0.093605332077 0.0056965542026 0 
-0.092847213149 0.0060007153079 0 -0.092010863125 0.0062986537814 0 -0.091086827219 0.0065885190852 0 
-0.090068906546 0.0068692620844 0 -0.088946826756 0.0071383863688 0 -0.0877270028 0.0073918434791 0 
-0.086427509785 0.007623387035 0 -0.085162386298 0.0078133717179 0 -0.084213927388 0.0079303728417 0 
-0.084429703653 0.0078726699576 0 -0.087712332606 0.0074760285206 0 -0.097932323813 0.006352043245 0 
-0.11992195994 0.0042239460163 0 -0.1565092504 0.00097941316199 0 -0.20429520309 -0.002481599804 0 
-0.25430697203 -0.0051141334698 0 -0.30282670259 -0.0068903900683 0 -0.34755527973 -0.0076841781847 0 
-0.38669899106 -0.0076407981105 0 -0.4189234376 -0.0067403470166 0 -0.44311916828 -0.0053622340783 0 
-0.45842164755 -0.0032411613502 0 -0.46407532692 -0.0013053821167 0 -0.095613949001 0.00020801919163 0 
-0.09659473598 0.00057349028066 0 -0.097291566432 0.0009809108451 0 -0.097746193409 0.0013472033897 0 
-0.097996138036 0.001730238786 0 -0.09808408469 0.0020868412685 0 -0.098043434322 0.0024485446047 0 
-0.097903348505 0.0027944147587 0 -0.097683429718 0.0031415480189 0 -0.097397789359 0.0034796714317 0 
-0.097054108977 0.0038176423404 0 -0.096656449139 0.0041500562802 0 -0.096205607057 0.0044811954722 0 
-0.095700316131 0.0048078745604 0 -0.095137931406 0.0051319743507 0 -0.094514228404 0.0054512694478 0 
-0.093824528158 0.0057664397173 0 -0.093062102795 0.006075495854 0 -0.092220671475 0.0063785305247 0 
-0.091290585697 0.0066732149571 0 -0.090265251696 0.0069591915235 0 -0.089133672416 0.0072328709066 0 
-0.087900422513 0.0074920714833 0 -0.086579248309 0.0077281496488 0 -0.085273765028 0.0079267341644 0 
-0.084241054952 0.0080516692251 0 -0.084276802838 0.0080162594095 0 -0.087191425264 0.0076455557719 0 
-0.096793651581 0.0065793348476 0 -0.11803467572 0.0044773151167 0 -0.15411327779 0.0012486487394 0 
-0.20211312175 -0.0023050843738 0 -0.25271555781 -0.0050439573824 0 -0.30189749599 -0.0068821520545 0 
-0.34728178382 -0.0077264285646 0 -0.38701990247 -0.0077050849795 0 -0.41974708438 -0.0068097794428 0 
-0.44433224201 -0.0054223882034 0 -0.4598980844 -0.0032792745624 0 -0.46568021178 -0.0013208605815 0 
-0.095888152719 0.00021034889505 0 -0.096868291497 0.00057976570679 0 -0.097561635077 0.00099154456984 0 
-0.098011054099 0.0013615804492 0 -0.098255112767 0.0017484945711 0 -0.098337359726 0.0021086824127 0 
-0.098291687667 0.0024741175584 0 -0.098147466779 0.0028236978687 0 -0.097924232483 0.0031747459434 0 
-0.097635917366 0.003516894998 0 -0.097289964557 0.003859101329 0 -0.096890203655 0.0041958871298 0 
-0.096437238157 0.0045315828174 0 -0.095929652452 0.0048629324883 0 -0.095364645123 0.0051918658428 0 
-0.094737902284 0.0055160555057 0 -0.094044610858 0.0058362795971 0 -0.093277975917 0.0061503476463 0 
-0.092431515455 0.0064585981891 0 -0.091495469213 0.0067582484335 0 -0.090462774038 0.0070495950058 0 
-0.089321896434 0.0073279892094 0 -0.088075496256 0.0075930482708 0 -0.086733661592 0.0078337462619 0 
-0.085389725864 0.0080408919603 0 -0.084277965128 0.0081734191626 0 -0.084142677486 0.0081598320976 0 
-0.086705118418 0.0078135803342 0 -0.095698848367 0.0068060639314 0 -0.1161846593 0.0047283838503 0 
-0.15172311664 0.0015265136026 0 -0.19988399744 -0.0021194908768 0 -0.25108456612 -0.0049717286602 0 
-0.30093863606 -0.0068715638481 0 -0.34698647261 -0.007768351119 0 -0.38732689619 -0.0077696116641 0 
-0.42056274414 -0.006879737135 0 -0.44554150105 -0.0054830312729 0 -0.46137312055 -0.0033176646102 0 
-0.46728470922 -0.0013364545302 0 -0.096162050962 0.00021264892712 0 -0.097141467035 0.00058595073642 0 
-0.097831256688 0.0010020196205 0 -0.098275393248 0.0013757304987 0 -0.098513565958 0.0017664545448 0 
-0.098590150476 0.0021301670931 0 -0.098539561033 0.0024992839899 0 -0.098391316831 0.0028525381349 0 
-0.098164923489 0.0032074784394 0 -0.097874075174 0.0035536456853 0 -0.09752599895 0.0039000930265 0 
-0.097124285996 0.0042412718758 0 -0.096669331193 0.0045815585181 0 -0.096159569919 0.0049176299945 0 
-0.095592059195 0.0052514607087 0 -0.094962388277 0.0055806296878 0 -0.09426560998 0.0059060016647 0 
-0.093494854867 0.0062252036296 0 -0.09264343977 0.0065387920476 0 -0.09170152992 0.0068435678259 0 
-0.090661525726 0.0071404189803 0 -0.089511536062 0.0074237179942 0 -0.088252238929 0.0076947412454 0 
-0.086890682578 0.0079402234405 0 -0.08551004529 0.0081558534876 0 -0.084324143827 0.0082958610728 0 
-0.08402633667 0.0083034485579 0 -0.086252316833 0.0079808253795 0 -0.094646863639 0.0070320852101 0 
-0.11437343806 0.0049782213755 0 -0.14934176207 0.0018112574471 0 -0.19760759175 -0.0019252471393 0 
-0.24941372871 -0.0048968624324 0 -0.29995003343 -0.0068586659618 0 -0.34666910768 -0.0078097488731 0 
-0.38761994243 -0.0078343981877 0 -0.42137044668 -0.0069501837716 0 -0.44674697518 -0.0055441595614 0 
-0.46284666657 -0.0033563135657 0 -0.46888875961 -0.0013521618675 0 -0.096435569227 0.00021491547523 0 
-0.097414202988 0.00059203477576 0 -0.098100349307 0.001012317487 0 -0.098539158702 0.0013896276942 0 
-0.098771423101 0.0017840855289 0 -0.098842397332 0.0021512559615 0 -0.098786979914 0.0025239973329 0 
-0.09863486141 0.0028808838688 0 -0.098405450583 0.0032396886963 0 -0.098112232983 0.0035898613278 0 
-0.097762189806 0.0039405510761 0 -0.09735866636 0.0042861397378 0 -0.096901871264 0.0046310485341 0 
-0.09639006108 0.0049718907103 0 -0.095820181072 0.0053106816486 0 -0.095187701285 0.0056449151598 0 
-0.094487547874 0.0059755304828 0 -0.093712776899 0.006299992092 0 -0.092856496572 0.0066190413199 0 
-0.091908805072 0.0069291139953 0 -0.090861573815 0.0072316047736 0 -0.089702650905 0.0075200265273 0 
-0.088430687785 0.0077971122228 0 -0.087050266564 0.0080476161093 0 -0.085634581745 0.0082716215402 0 
-0.084379114211 0.0084192287177 0 -0.083927027881 0.0084471832961 0 -0.085831955075 0.0081483116373 0 
-0.093637488782 0.0072573935613 0 -0.11260136217 0.0052326405421 0 -0.14697906375 0.0020974508952 0 
-0.19527886808 -0.0017255056882 0 -0.24770309031 -0.0048168869689 0 -0.29893127084 -0.0068434458226 0 
-0.3463294208 -0.0078503722325 0 -0.38789889216 -0.0078994613141 0 -0.4221701622 -0.0070210881531 0 
-0.44794863462 -0.0056057684124 0 -0.46431869268 -0.0033952039666 0 -0.47049230337 -0.0013679807307 0 
-0.096708633006 0.00021714466857 0 -0.09768640995 0.00059800664894 0 -0.098368838429 0.0010224193102 0 
-0.098802261055 0.0014032456093 0 -0.099028617144 0.0018013534136 0 -0.099094025791 0.0021719078068 0 
-0.099033899605 0.0025482105557 0 -0.09887804091 0.0029086815193 0 -0.09864576906 0.0032713173423 0 
-0.098350353539 0.003625477897 0 -0.097998507321 0.0039804070257 0 -0.097593329847 0.0043304180726 0 
-0.097134836018 0.0046799764968 0 -0.096621125937 0.0050256359391 0 -0.096049010754 0.005369448103 0 
-0.095413848758 0.0057088318281 0 -0.094710439444 0.0060447859578 0 -0.093931771815 0.006374636665 0 
-0.093070715666 0.0066992715001 0 -0.092117354274 0.0070148212835 0 -0.091062970459 0.0073230895214 0 
-0.089895285666 0.0076168733649 0 -0.088610902429 0.0079001160339 0 -0.087212391198 0.0081559335813 0 
-0.08576323837 0.0083881821483 0 -0.084442459047 0.0085436617956 0 -0.083844214678 0.0085910707712 0 
-0.085443168879 0.0083165932447 0 -0.092672109604 0.0074819438159 0 -0.11086817086 0.0054952390492 0 
-0.14462704957 0.0023835811298 0 -0.19290690124 -0.0015232665464 0 -0.24595326185 -0.0047301482409 0 
-0.29788142443 -0.0068260016851 0 -0.34596705437 -0.0078901099041 0 -0.38816362619 -0.0079648401588 0 
-0.4229618907 -0.0070924377069 0 -0.44914650917 -0.0056678596884 0 -0.46578913927 -0.0034343211446 0 
-0.47209519148 -0.0013839089079 0 -0.096981152892 0.00021933251992 0 -0.097958013415 0.0006038552383 0 
-0.098636642098 0.0010323055321 0 -0.099064618349 0.0014165571192 0 -0.099285066128 0.0018182235071 0 
-0.099344976246 0.0021920807194 0 -0.099280245602 0.0025718747638 0 -0.099120795727 0.0029358761385 0 
-0.098885841668 0.0033023036085 0 -0.098588392138 0.0036604288034 0 -0.098234906793 0.0040195886977 0 
-0.097828239202 0.0043740305118 0 -0.097368218005 0.004728263244 0 -0.096852757037 0.0050787837245 0 
-0.096278548241 0.0054276767187 0 -0.095640838146 0.0057722944766 0 -0.094934307039 0.0061136828735 0 
-0.094151869416 0.0064490553923 0 -0.093286149204 0.0067794029601 0 -0.092327222228 0.00710061891 0 
-0.091265790164 0.0074148038402 0 -0.0900894925 0.0077142054215 0 -0.088792935014 0.0080036995932 0 
-0.087377041578 0.0082651581615 0 -0.08589592576 0.0085054999217 0 -0.084513798356 0.0086691882461 0 
-0.083777353168 0.0087350578979 0 -0.08508502692 0.0084855025634 0 -0.091751746833 0.0077052377164 0 
-0.10917485505 0.0057634236291 0 -0.14228460193 0.0026721952017 0 -0.19049485028 -0.0013168522855 0 
-0.24416448176 -0.0046373642981 0 -0.29679968953 -0.0068064900115 0 -0.34558174014 -0.0079290159047 0 
-0.38841405511 -0.0080305961892 0 -0.42374566197 -0.0071642366238 0 -0.45034056902 -0.0057304357179 0 
-0.46725797653 -0.0034736513626 0 -0.47369733453 -0.0013999439543 0 -0.097253061831 0.00022147498385 0 
-0.098228923976 0.00060956901871 0 -0.098903678358 0.0010419562459 0 -0.09932615608 0.0014295347501 0 
-0.099540695548 0.00183466007 0 -0.099595174193 0.0022117320914 0 -0.0995259583 0.0025949403644 0 
-0.099363073707 0.0029624113813 0 -0.099125608802 0.0033325850964 0 -0.098826304078 0.0036946458276 0 
-0.098471365869 0.004058023449 0 -0.098063379526 0.0044168997556 0 -0.097601979971 0.0047758263536 0 
-0.097084924579 0.0051312479191 0 -0.096508786082 0.0054852790199 0 -0.095868684351 0.0058352150954 0 
-0.095159173012 0.0061821341515 0 -0.094373092055 0.0065231621265 0 -0.09350284189 0.0068593523465 0 
-0.09253846854 0.0071864277124 0 -0.091470085084 0.0075066732243 0 -0.090285338461 0.0078119607642 0 
-0.088976852596 0.008107800968 0 -0.087544217706 0.0083752507344 0 -0.08603258431 0.0086235320196 0 
-0.084592759609 0.008795789443 0 -0.083725824952 0.0088791036978 0 -0.084756448865 0.0086548030376 0 
-0.090876400471 0.00792693533 0 -0.10752272606 0.0060349712148 0 -0.13995152712 0.0029647541232 0 
-0.18804518878 -0.0011044209823 0 -0.24233655632 -0.0045389835723 0 -0.29568549991 -0.0067849587649 0 
-0.3451731503 -0.0079671498388 0 -0.3886500895 -0.0080967908725 0 -0.42452150583 -0.0072364928201 0 
-0.45153084397 -0.005793500226 0 -0.46872511506 -0.0035131815821 0 -0.47529867291 -0.0014160829596 0 
-0.097524262965 0.00022356794216 0 -0.098499059677 0.00061513640685 0 -0.0991698578 0.0010513515444 0 
-0.09958678484 0.0014421504457 0 -0.099795423448 0.0018506271299 0 -0.099844545126 0.0022308181506 0 
-0.099770970643 0.0026173563674 0 -0.099604822695 0.0029882299714 0 -0.099365018308 0.0033620980103 0 
-0.099064044654 0.0037280591205 0 -0.098707824945 0.0040956353769 0 -0.098298698664 0.0044589443132 0 
-0.097836107016 0.0048225806095 0 -0.097317628562 0.0051829400472 0 -0.096739724278 0.0055421637371 0 
-0.096097394824 0.0058975000866 0 -0.095385059714 0.0062500461936 0 -0.094595484436 0.0065968646668 0 
-0.093720838428 0.0069390307181 0 -0.092751130462 0.0072721638717 0 -0.091675944626 0.0075986189768 0 
-0.090482883155 0.0079100672156 0 -0.08916272223 0.0082123558968 0 -0.08771391958 0.0084861563519 0 
-0.086173139513 0.0087422281504 0 -0.084678977728 0.0089234141633 0 -0.083688937128 0.0090231578797 0 
-0.084456332028 0.0088242562488 0 -0.090045705438 0.0081467768177 0 -0.1059133783 0.0063084834255 0 
-0.13762891293 0.0032618395053 0 -0.18555989861 -0.00088462466374 0 -0.24046891928 -0.0044350232929 0 
-0.29453837872 -0.0067613972351 0 -0.34474101663 -0.0080045415089 0 -0.38887169957 -0.0081634763628 0 
-0.42528945208 -0.007309212815 0 -0.45271739364 -0.0058570546098 0 -0.47019055486 -0.0035528971348 0 
-0.47689905763 -0.0014323216164 0 -0.097794674337 0.0002256072039 0 -0.09876833111 0.00062054564478 0 
-0.099435091019 0.0010604710551 0 -0.099846415222 0.0014543758007 0 -0.10004917532 0.0018660878995 0 
-0.10009300709 0.0022492946591 0 -0.10001522303 0.0026390710846 0 -0.099845968187 0.0030132732354 0 
-0.099604018033 0.0033907771576 0 -0.099301569164 0.0037605972029 0 -0.09894426167 0.0041323467158 0 
-0.098534174263 0.0045000808313 0 -0.098070569336 0.0048684380017 0 -0.097550854087 0.0052337679081 0 
-0.096971355379 0.0055982372724 0 -0.096326962113 0.0059590530582 0 -0.095611989498 0.0063173226081 0 
-0.094819061458 0.0066700670868 0 -0.09394017607 0.0070183454081 0 -0.092965275049 0.0073577361181 0 
-0.091883413494 0.0076905577444 0 -0.090682186186 0.0080084456131 0 -0.089350610971 0.0083172945306 0 
-0.087886147201 0.008597811684 0 -0.086317509413 0.0088615361601 0 -0.084772109985 0.0090520065278 0 
-0.083665981889 0.0091671878472 0 -0.084183521569 0.0089937057346 0 -0.089258991182 0.0083645703271 0 
-0.10434836149 0.0065830666572 0 -0.1353186816 0.0035635137465 0 -0.1830406934 -0.00065645773429 0 
-0.23856069148 -0.0043252706528 0 -0.29335775971 -0.0067357853986 0 -0.3442851007 -0.0080411843956 0 
-0.38907882571 -0.0082307020202 0 -0.42604956031 -0.0073823956773 0 -0.45390018821 -0.005921095144 0 
-0.47165423632 -0.0035927814897 0 -0.47849836946 -0.0014486535219 0 -0.09806419909 0.00022758856358 0 
-0.099036641419 0.00062578491634 0 -0.099699288607 0.0010692940559 0 -0.10010495782 0.0014661819441 0 
-0.10030186176 0.0018810052425 0 -0.10034049302 0.0022671166807 0 -0.10025862604 0.0026600323617 0 
-0.10008645058 0.0030374818016 0 -0.099842555821 0.0034185561817 0 -0.099538818002 0.0037921865005 0 
-0.099180623889 0.0041680783033 0 -0.098769769073 0.0045402240939 0 -0.098305344582 0.0049133086577 0 
-0.09778457135 0.005283636041 0 -0.097203671932 0.0056534004398 0 -0.096557401121 0.0060197729617 0 
-0.095839962363 0.0063838628121 0 -0.095043860376 0.0067426674068 0 -0.094160906971 0.0070971990936 0 
-0.093180947006 0.0074430494569 0 -0.092092581093 0.0077824019827 0 -0.09088331461 0.0081070121378 0 
-0.089540585876 0.0084225451574 0 -0.08806091547 0.0087101468816 0 -0.086465634406 0.0089814057574 0 
-0.084871813655 0.009181513451 0 -0.083656251431 0.0093111684546 0 -0.083936847746 0.0091630676761 0 
-0.088515453041 0.008580153808 0 -0.10282915831 0.0068581365049 0 -0.13302324712 0.0038694911636 0 
-0.18048936129 -0.00041910502478 0 -0.23661084473 -0.0042093624361 0 -0.29214307666 -0.0067081260495 0 
-0.34380504489 -0.0080770393834 0 -0.38927149773 -0.0082985125482 0 -0.42680191994 -0.0074560358189 0 
-0.45507931709 -0.0059856148437 0 -0.47311607003 -0.0036328162532 0 -0.4800965488 -0.0014650698286 0 
-0.098332755268 0.00022950778657 0 -0.099303901196 0.00063084223075 0 -0.099962353706 0.0010777999414 0 
-0.10036233068 0.0014775401214 0 -0.10055339336 0.0018953416729 0 -0.10058691353 0.0022842390463 0 
-0.10050112009 0.0026801871136 0 -0.10032620281 0.0030607951339 0 -0.10008055717 0.0034453673288 0 
-0.099775739014 0.0038227527402 0 -0.099416859448 0.0042027486488 0 -0.099005438387 0.004579286091 0 
-0.098540395498 0.0049570989795 0 -0.098018757999 0.0053324466571 0 -0.097436673939 0.0057075526565 0 
-0.096788711846 0.0060795550235 0 -0.096069008112 0.0064495624974 0 -0.095269910991 0.0068145599216 0 
-0.094383075833 0.0071754902601 0 -0.093398205936 0.0075280023739 0 -0.09230350703 0.0078740604222 0 
-0.091086342931 0.0082056764513 0 -0.089732721448 0.0085280351341 0 -0.088238231838 0.0088230883703 0 
-0.086617462337 0.0091017913073 0 -0.084977790713 0.0093118892983 0 -0.083659060299 0.00945509132 0 
-0.083715118468 0.0093323206529 0 -0.087814159691 0.0087933856994 0 -0.10135705024 0.0071332962252 0 
-0.13074533641 0.0041792299598 0 -0.17790785432 -0.00017184611352 0 -0.23461815715 -0.0040868376382 0 
-0.2908936739 -0.0066784573719 0 -0.34330064058 -0.0081120403484 0 -0.38944965601 -0.0083669498563 0 
-0.42754656076 -0.0075301215984 0 -0.45625478029 -0.006050599739 0 -0.474576056 -0.0036729804706 0 
-0.48169341683 -0.0014815590112 0 -0.098600253463 0.00023136058007 0 -0.099570021033 0.00063570565544 0 
-0.10022419691 0.0010859677568 0 -0.10061843693 0.0014884209959 0 -0.10080368072 0.0019090595888 0 
-0.10083219409 0.0023006158881 0 -0.10074263066 0.0026994820219 0 -0.10056515783 0.0030831524637 0 
-0.10031796992 0.0034711423796 0 -0.10001228005 0.0038522197865 0 -0.099652931094 0.0042362753302 0 
-0.099241144955 0.0046171774156 0 -0.098775684834 0.0049997139722 0 -0.098253406584 0.0053800982423 0 
-0.097670331597 0.0057605886832 0 -0.097020894289 0.0061382907443 0 -0.096299134195 0.0065143122338 0 
-0.095497228205 0.0068856342696 0 -0.094606719911 0.0072531127371 0 -0.093617096543 0.0076124886982 0 
-0.092516250908 0.0079654380679 0 -0.091291323304 0.0083043426275 0 -0.089927092195 0.0086336908862 0 
-0.088418133557 0.0089365607128 0 -0.086772926152 0.0092226527631 0 -0.085089735687 0.0094430996105 0 
-0.083673745394 0.0095989629626 0 -0.08351713419 0.0095014926046 0 -0.087154105306 0.0090041505173 0 
-0.099933110178 0.0074082785286 0 -0.1284879148 0.0044919825159 0 -0.17529845238 8.5995372501e-05 0 
-0.23258119822 -0.0039571537636 0 -0.28960880637 -0.0066468650475 0 -0.34277158976 -0.0081461034715 0 
-0.38961330056 -0.0084360521287 0 -0.4282836318 -0.0076046385802 0 -0.45742666721 -0.0061160288751 0 
-0.47603410482 -0.0037132506259 0 -0.48328885436 -0.0014981059358 0 -0.098866581917 0.00023314272403 0 
-0.099834896624 0.00064036331605 0 -0.10048472136 0.0010937768966 0 -0.10087317228 0.0014987954637 0 
-0.10105263442 0.0019221211551 0 -0.10107624531 0.0023162015714 0 -0.1009830758 0.0027178633027 0 
-0.10080324113 0.0031044920906 0 -0.10055471957 0.0034958124161 0 -0.1002483815 0.0038805112708 0 
-0.099888771772 0.0042685740627 0 -0.099476836622 0.0046538072638 0 -0.099011190236 0.005041055847 0 
-0.098488472402 0.0054264874198 0 -0.097904644907 0.0058124014176 0 -0.097253933549 0.0061958678998 0 
-0.096530355513 0.0065779997967 0 -0.095725849271 0.0069557749666 0 -0.094831876457 0.0073299566284 0 
-0.093837678432 0.0076963971369 0 -0.092730902135 0.0080564375967 0 -0.091498337686 0.0084029128775 0 
-0.09012375772 0.0087394379079 0 -0.088600642979 0.0090504894033 0 -0.086932010949 0.0093439556658 0 
-0.085207387805 0.0095751127228 0 -0.083699710667 0.0097428103909 0 -0.083341687918 0.0096706477925 0 
-0.086534217 0.0092123681679 0 -0.09855812043 0.0076829134487 0 -0.12625406682 0.0048068240285 0 
-0.17266383767 0.00035507135908 0 -0.23049834371 -0.0038197007962 0 -0.28828766942 -0.0066134836525 0 
-0.34221762419 -0.008179130964 0 -0.38976237178 -0.008505852893 0 -0.42901322246 -0.0076795686036 0 
-0.45859497786 -0.0061818738468 0 -0.47749021649 -0.0037536018062 0 -0.48488271236 -0.0015146917431 0 
-0.099131658673 0.00023484995472 0 -0.10009843111 0.00064480328001 0 -0.10074382275 0.001101206406 0 
-0.10112645477 0.0015086345375 0 -0.10130016506 0.0019344885368 0 -0.10131897777 0.0023309504613 0 
-0.10122237355 0.0027352769393 0 -0.10104038566 0.0031247523148 0 -0.10079075396 0.0035193075892 0 
-0.1004839763 0.0039075496607 0 -0.10012432933 0.0042995596305 0 -0.099712476134 0.004689081572 0 
-0.09924685955 0.0050810254179 0 -0.098723933101 0.0054715080187 0 -0.098139584064 0.0058628800325 0 
-0.097487844527 0.0062521710061 0 -0.096762679517 0.0066405083053 0 -0.095955789089 0.0070248623379 0 
-0.095058597624 0.00740590645 0 -0.094060003757 0.0077796112746 0 -0.092947512865 0.0081469556317 0 
-0.091707460582 0.0085012819618 0 -0.090322822332 0.0088452016935 0 -0.088785797358 0.0091647943482 0 
-0.087094686925 0.0094656776637 0 -0.085330493748 0.0097079062834 0 -0.083736389875 0.0098866885528 0 
-0.083187587559 0.0098398756236 0 -0.085953369737 0.0094180162996 0 -0.097232542932 0.0079571129754 0 
-0.12404698133 0.0051226862706 0 -0.17000719905 0.00063600385329 0 -0.22836777568 -0.0036738140043 0 
-0.28692942858 -0.0065784920007 0 -0.34163853526 -0.0082110203803 0 -0.38989686966 -0.0085763763636 0 
-0.42973545194 -0.0077548953705 0 -0.45975983143 -0.0062480978668 0 -0.4789442718 -0.0037940056063 0 
-0.48647484183 -0.0015312937321 0 -0.099395379424 0.00023647806665 0 -0.10036052763 0.00064901378937 0 
-0.10100140423 0.0011082359124 0 -0.10137817264 0.0015179092297 0 -0.10154618323 0.0019461243646 0 
-0.10156030953 0.0023448162246 0 -0.10146044195 0.0027516693808 0 -0.10127650201 0.0031438714359 0 
-0.10102598369 0.0035415580496 0 -0.10071899742 0.0039332560264 0 -0.10035954416 0.0043291463517 0 
-0.099947996438 0.0047229072079 0 -0.099482655525 0.0051195211709 0 -0.098959751427 0.00551505154 0 
-0.09837513417 0.0059119113721 0 -0.09772259742 0.0063070803881 0 -0.096996121109 0.0067017176189 0 
-0.096187077463 0.007092772983 0 -0.095286913216 0.0074808434583 0 -0.094284124672 0.0078620109707 0 
-0.093166165054 0.0082368869334 0 -0.091918766499 0.0085993437096 0 -0.090524353087 0.008950904943 0 
-0.088973656297 0.0092793954536 0 -0.087260968983 0.0095878001302 0 -0.0854588449 0.0098414579406 0 
-0.08378328383 0.01003068313 0 -0.083053648472 0.010009278543 0 -0.085410416126 0.009621151723 0 
-0.095956519246 0.0082308575511 0 -0.12186986208 0.005438416265 0 -0.1673322022 0.00092935259454 0 
-0.22618737817 -0.0035187962931 0 -0.28553313017 -0.0065421024337 0 -0.34103414416 -0.0082416683435 0 
-0.3900167346 -0.0086476281285 0 -0.43045043945 -0.0078306021169 0 -0.46092119813 -0.0063146515749 0 
-0.48039621115 -0.0038344322238 0 -0.48806509376 -0.0015478848945 0 -0.099657654762 0.00023802288342 0 
-0.10062108934 0.00065298326081 0 -0.10125736892 0.0011148449266 0 -0.10162822902 0.0015265907859 0 
-0.10179058462 0.00195699092 0 -0.10180015862 0.002357753925 0 -0.1016972065 0.0027669866104 0 
-0.10151153058 0.0031617877539 0 -0.10126034915 0.0035624937154 0 -0.10095338523 0.0039575523697 0 
-0.10059435666 0.004357246682 0 -0.10018334538 0.0047551877797 0 -0.099718526006 0.005156439729 0 
-0.099195897579 0.0055570066907 0 -0.098611272871 0.0059593785554 0 -0.09795819968 0.0063604745083 0 
-0.097230665386 0.0067615038715 0 -0.096419721842 0.0071593774483 0 -0.095516867936 0.0075546428561 0 
-0.094510100782 0.0079434681684 0 -0.093386933208 0.0083261178806 0 -0.092132329941 0.0086969835684 0 
-0.090728446841 0.0090564703569 0 -0.089164279401 0.0093942079693 0 -0.087430864573 0.0097103137523 0 
-0.085592254996 0.00997574348 0 -0.083839930594 0.010174911469 0 -0.082938723266 0.010178963654 0 
-0.084904201329 0.0098219523206 0 -0.0947297737 0.0085041848943 0 -0.11972586811 0.0057528759353 0 
-0.16464310884 0.0012355458457 0 -0.2239548713 -0.0033539629076 0 -0.28409776092 -0.0065045272931 0 
-0.34040433168 -0.0082709807903 0 -0.390121907 -0.0087195876986 0 -0.43115830421 -0.0079066734761 0 
-0.46207919717 -0.006381476298 0 -0.48184600472 -0.0038748483639 0 -0.48965325952 -0.001564434031 0 
-0.099918372929 0.00023948031594 0 -0.10088000447 0.00065670028562 0 -0.10151159763 0.0011210131925 0 
-0.10187652707 0.0015346510336 0 -0.10203327239 0.001967051765 0 -0.10203841329 0.0023697183933 0 
-0.10193257034 0.0027811760083 0 -0.10174538195 0.0031784395687 0 -0.10149376839 0.0035820445046 0 
-0.10118706524 0.0039803595282 0 -0.10082870722 0.0043837730773 0 -0.10041847825 0.004785827361 0 
-0.099954426289 0.0051916777156 0 -0.099432326853 0.005597261712 0 -0.098847962916 0.0060051628388 0 
-0.098194628954 0.0064122267067 0 -0.097466334701 0.0068197376095 0 -0.09665375948 0.0072245430201 0 
-0.095748491585 0.0076271761209 0 -0.094737976789 0.0080238524824 0 -0.093609876931 0.0084145329893 0 
-0.092348255217 0.0087940823287 0 -0.090935207903 0.0091618150473 0 -0.089357741177 0.0095091424882 0 
-0.087604418397 0.0098332110792 0 -0.085730597377 0.010110735893 0 -0.083905935287 0.010319529101 0 
-0.082841739058 0.0103490334 0 -0.084433563054 0.010020745918 0 -0.093551687896 0.0087771592662 0 
-0.1176180318 0.0060651288368 0 -0.16194462776 0.0015547490912 0 -0.22166775167 -0.0031787205953 0 
-0.28262230754 -0.0064659197815 0 -0.33974903822 -0.0082988841459 0 -0.39021238685 -0.0087921973318 0 
-0.43185919523 -0.0079830959439 0 -0.46323385835 -0.0064484989271 0 -0.48329356313 -0.0039152172394 0 
-0.4912391603 -0.001580906217 0 -0.10017743707 0.00024084636243 0 -0.10113717616 0.00066015368793 0 
-0.1017640084 0.0011267212685 0 -0.10212296993 0.0015420618001 0 -0.10227415711 0.0019762702286 0 
-0.10227499902 0.0023806651589 0 -0.10216645896 0.0027941844892 0 -0.10197797418 0.0031937658787 0 
-0.1017261669 0.0036001410335 0 -0.10141996294 0.0040015988052 0 -0.10106251389 0.0044086384587 0 
-0.10065332055 0.0048147286288 0 -0.10019030422 0.0052251284942 0 -0.099669001997 0.0056357011199 0 
-0.099085189402 0.0060491436161 0 -0.098431870341 0.006462208461 0 -0.097703114152 0.0068762875162 0 
-0.096889190376 0.0072881327942 0 -0.095981821418 0.0076983077452 0 -0.0949678123 0.0081030251458 0 
-0.09383508563 0.0085020093247 0 -0.092566616833 0.008890514262 0 -0.091144733131 0.0092668496072 0 
-0.089554153383 0.0096241040155 0 -0.087781690061 0.0099564855918 0 -0.085873767734 0.010246404447 0 
-0.083980962634 0.010464719497 0 -0.082761690021 0.010519579053 0 -0.083997368813 0.0102180494 0 
-0.092421323061 0.0090498523787 0 -0.11554911733 0.0063747735694 0 -0.15924201906 0.0018866444007 0 
-0.21932330728 -0.0029927135911 0 -0.28110575676 -0.0064262649976 0 -0.33906817436 -0.0083253318444 0 
-0.39028808475 -0.00886535272 0 -0.43255326152 -0.0080598574132 0 -0.46438527107 -0.0065156351775 0 
-0.48473873734 -0.0039554988034 0 -0.49282258749 -0.0015972631518 0 -0.10043475032 0.00024211709388 0 
-0.1013925001 0.00066333258292 0 -0.10201448202 0.0011319497135 0 -0.10236743838 0.0015487960773 0 
-0.10251313448 0.0019846104551 0 -0.10250981897 0.0023905504495 0 -0.10239877552 0.0028059601318 0 
-0.10220921785 0.0032077063806 0 -0.10195746273 0.0036167139187 0 -0.10165199637 0.0040211924352 0 
-0.10129571706 0.0044317543507 0 -0.10088781267 0.0048417942598 0 -0.10042609274 0.0052566863596 0 
-0.099905878305 0.0056722098961 0 -0.099322907627 0.0060911965556 0 -0.098669908941 0.0065102889203 0 
-0.09794100374 0.0069310180843 0 -0.097126029432 0.0073500038125 0 -0.096216894686 0.0077678989619 0 
-0.095199666917 0.0081808436662 0 -0.094062618911 0.0085884165019 0 -0.092787519097 0.0089861471206 0 
-0.091357134283 0.0093714771792 0 -0.089753605425 0.009738988243 0 -0.087962754071 0.01008012332 0 
-0.086021736264 0.010382704437 0 -0.084064722061 0.010610687546 0 -0.082697734237 0.010690674186 0 
-0.083594538271 0.010414586402 0 -0.09133759141 0.0093223061413 0 -0.11352165043 0.0066823456436 0 
-0.15654085577 0.0022301608697 0 -0.21691913903 -0.0027959607542 0 -0.27954718471 -0.0063852579333 0 
-0.33836176991 -0.0083503257483 0 -0.39034894109 -0.0089388974011 0 -0.43324062228 -0.0081369448453 0 
-0.46553343534 -0.0065827900544 0 -0.48618149757 -0.0039956476539 0 -0.49440330267 -0.0016134636244 0 
-0.10069020838 0.00024328874133 0 -0.101645872 0.00066622649319 0 -0.10226292163 0.0011366799008 0 
-0.10260984302 0.0015548272058 0 -0.10275010765 0.0019920379855 0 -0.10274277627 0.00239933189 0 
-0.10262943059 0.0028164526448 0 -0.10243903846 0.0032202019356 0 -0.10218757391 0.0036316951737 0 
-0.10188309848 0.0040390612558 0 -0.10152823478 0.0044530336745 0 -0.10112188011 0.0048669264652 0 
-0.10066174716 0.0052862432785 0 -0.10014289618 0.0057066702284 0 -0.099561080337 0.0061311973259 0 
-0.0989087075 0.006556332577 0 -0.098180003464 0.0069837891497 0 -0.097364298999 0.0074100103229 0 
-0.096453733742 0.0078358035535 0 -0.095433577895 0.0082571571693 0 -0.09429256618 0.0086736157537 0 
-0.093011058867 0.0090808402747 0 -0.091572523117 0.0094755934551 0 -0.089956246316 0.0098536834121 0 
-0.088147722185 0.010204099119 0 -0.08617451787 0.010519581847 0 -0.08415697515 0.010757626034 0 
-0.082649163902 0.010862362571 0 -0.083223983645 0.010611234233 0 -0.090299390256 0.0095943827182 0 
-0.11153692752 0.0069900983945 0 -0.15384283662 0.0025826883502 0 -0.21445520222 -0.0025891815312 0 
-0.27794620395 -0.006341860164 0 -0.33762961626 -0.0083739096299 0 -0.39039495587 -0.0090126171708 0 
-0.43392142653 -0.0082143396139 0 -0.46667850018 -0.0066498606466 0 -0.48762172461 -0.0040356134996 0 
-0.49598100781 -0.0016294649104 0 -0.10094370693 0.00024435762316 0 -0.10189718753 0.00066882523242 0 
-0.10250921547 0.001140893437 0 -0.10285007954 0.0015601293417 0 -0.10298497975 0.0019985188264 0 
-0.10297378153 0.002406967571 0 -0.10285833478 0.0028256117366 0 -0.1026673466 0.003231194336 0 
-0.10241641849 0.0036450172774 0 -0.10211317986 0.0040551298298 0 -0.10175999254 0.0044723888859 0 
-0.10135545582 0.0048900279216 0 -0.10089719296 0.0053136926144 0 -0.10038000345 0.0057389643043 0 
-0.099799662828 0.00616901787 0 -0.099148243666 0.0066002029926 0 -0.098420083523 0.0070344577543 0 
-0.097603991628 0.0074680014513 0 -0.096692368388 0.0079018706456 0 -0.095669612288 0.0083318101242 0 
-0.094524987042 0.008757462725 0 -0.093237333 0.009174445644 0 -0.091791018844 0.0095790792257 0 
-0.090162195265 0.0099680656567 0 -0.08833668381 0.010328370146 0 -0.086332179606 0.01065696869 0 
-0.084257543087 0.010905704461 0 -0.08261552453 0.011034692638 0 -0.082884706557 0.010809043422 0 
-0.089306816459 0.0098661994562 0 -0.10959528387 0.0073059936985 0 -0.15116138756 0.0029375546146 0 
-0.21192367375 -0.0023759186734 0 -0.27630257607 -0.006293096114 0 -0.33687117696 -0.0083960480988 0 
-0.39042598009 -0.0090862894431 0 -0.43459573388 -0.0082920165733 0 -0.46782043576 -0.006716741249 0 
-0.48905923963 -0.004075343255 0 -0.49755549431 -0.0016452227719 0 -0.10119514912 0.00024532023235 0 
-0.10214634985 0.00067111907993 0 -0.10275325924 0.0011445732089 0 -0.10308803618 0.0015646774555 0 
-0.10321763903 0.0020040201489 0 -0.10320273042 0.0024134172127 0 -0.10308540612 0.0028333894443 0 
-0.10289404541 0.003240626771 0 -0.10264390707 0.0036566145718 0 -0.10234215856 0.0040693208575 0 
-0.10199091583 0.0044897347689 0 -0.10158846527 0.004911001306 0 -0.10113236308 0.0053389258683 0 
-0.10061714053 0.0057689729147 0 -0.1000386104 0.0062045296654 0 -0.099388487637 0.0066417613998 0 
-0.098661243916 0.0070828781463 0 -0.097845114768 0.0075238225982 0 -0.096932820976 0.0079659437761 0 
-0.09590780735 0.0084046404809 0 -0.094759956002 0.0088398028165 0 -0.093466445804 0.0092668058351 0 
-0.092012740672 0.0096818041056 0 -0.090371608734 0.010082001798 0 -0.088529787958 0.010452865623 0 
-0.08649481833 0.010794778354 0 -0.084366291761 0.011055001058 0 -0.08259652555 0.011207658798 0 
-0.082575909793 0.011008495465 0 -0.088361524045 0.010137726553 0 -0.10769686848 0.0076332455501 0 
-0.14848196507 0.0032950700261 0 -0.20933766663 -0.002159179654 0 -0.27461650968 -0.0062376214191 0 
-0.33608546853 -0.008416865021 0 -0.39044189453 -0.0091598229483 0 -0.43526363373 -0.0083699682727 0 
-0.46895933151 -0.0067833308131 0 -0.49049395323 -0.0041147773154 0 -0.49912646413 -0.0016606920399 0 
-0.1014444381 0.00024617326562 0 -0.10239325464 0.0006730989553 0 -0.10299495608 0.0011477023363 0 
-0.10332361609 0.0015684477985 0 -0.10344800353 0.0020085102879 0 -0.10342953354 0.0024186416995 0 
-0.10331054032 0.0028397389688 0 -0.1031190455 0.003248443827 0 -0.10286994278 0.0036664223298 0 
-0.10256994516 0.0040815607645 0 -0.10222090781 0.0045049856417 0 -0.10182083398 0.0049297502264 0 
-0.10136718303 0.0053618364036 0 -0.10085425526 0.0057965777814 0 -0.10027787089 0.0062376032583 0 
-0.099629402161 0.0066808662377 0 -0.09890345484 0.0071289008483 0 -0.098087668419 0.0075773135759 0 
-0.097175121307 0.0080278599635 0 -0.096148207784 0.0084754787385 0 -0.094997555017 0.0089204730466 0 
-0.093698494136 0.0093577560037 0 -0.092237815261 0.0097836256027 0 -0.090584635735 0.010195344687 0 
-0.088727153838 0.010577492416 0 -0.086662560701 0.010932900943 0 -0.084483116865 0.011205508374 0 
-0.082591876388 0.011381180026 0 -0.082296714187 0.011209458113 0 -0.087464421988 0.010408386588 0 
-0.10584338009 0.0079678427428 0 -0.14580754936 0.0036584802438 0 -0.20669655502 -0.0019362330204 0 
-0.27288764715 -0.0061764824204 0 -0.33527180552 -0.0084365280345 0 -0.39044257998 -0.0092332297936 0 
-0.43592533469 -0.0084481881931 0 -0.47009527683 -0.006849524565 0 -0.4919257164 -0.0041538528167 0 
-0.50069355965 -0.0016758259153 0 -0.10169146955 0.00024691355065 0 -0.10263779014 0.0006747560692 0 
-0.10323419422 0.0011502649868 0 -0.1035567075 0.0015714175534 0 -0.10367595404 0.002011959441 0 
-0.10365409404 0.0024226042442 0 -0.10353364795 0.0028446153738 0 -0.10334226489 0.0032545926515 0 
-0.10309445113 0.0036743781529 0 -0.10279645026 0.0040917764418 0 -0.10244989395 0.0045180586167 0 
-0.10205246508 0.0049461801536 0 -0.10160158575 0.0053823166527 0 -0.10109126568 0.0058216582984 0 
-0.10051739216 0.0062681082636 0 -0.099870935082 0.006717375014 0 -0.099146686494 0.0071723731235 0 
-0.098331645131 0.0076283128001 0 -0.097419269383 0.0080874525011 0 -0.096390858293 0.0085441507399 0 
-0.095237836242 0.0089993029833 0 -0.093933574855 0.0094471210614 0 -0.092466361821 0.0098843872547 0 
-0.090801432729 0.010307936929 0 -0.088928923011 0.010702132247 0 -0.08683552593 0.011071215384 0 
-0.084607921541 0.01135717053 0 -0.082601234317 0.011555179954 0 -0.082046143711 0.011411762796 0 
-0.086615420878 0.010677892715 0 -0.10403637588 0.0083075938746 0 -0.14313687384 0.0040291785263 0 
-0.20400285721 -0.0017051290488 0 -0.27111536264 -0.0061099748127 0 -0.33442959189 -0.0084550818428 0 
-0.39042797685 -0.009306512773 0 -0.43658092618 -0.0085266595706 0 -0.47122833133 -0.0069152079523 0 
-0.49335435033 -0.0041924952529 0 -0.50225645304 -0.0016905746888 0 -0.10193613917 0.00024753820617 0 
-0.10287985951 0.00067608233076 0 -0.10347086936 0.0011522463756 0 -0.10378722101 0.0015735650668 0 
-0.10390140116 0.0020143387374 0 -0.10387632251 0.0024252692237 0 -0.10375463963 0.0028479755856 0 
-0.10356360674 0.0032590213232 0 -0.1033173278 0.0036804215051 0 -0.1030215919 0.004099897109 0 
-0.10267777741 0.0045288712718 0 -0.10228328407 0.004960197024 0 -0.10183548182 0.0054002618417 0 
-0.10132811219 0.0058440971188 0 -0.10075710714 0.0062959133647 0 -0.10011304915 0.0067511433735 0 
-0.099390916526 0.0072131403722 0 -0.098577037454 0.0076766530983 0 -0.097665280104 0.0081445481628 0 
-0.09663579613 0.0086104748771 0 -0.09548086673 0.00907611195 0 -0.094171792269 0.0095347184688 0 
-0.09269849956 0.0099839204922 0 -0.091022156179 0.010419610888 0 -0.089135251939 0.010826651007 0 
-0.087013848126 0.011209584773 0 -0.084740638733 0.011509892531 0 -0.082624226809 0.011729561724 0 
-0.08182323724 0.01161519438 0 -0.085814148188 0.010945972987 0 -0.10227784514 0.0086507899687 0 
-0.14047147334 0.0044079315849 0 -0.20125772059 -0.0014641452581 0 -0.26929867268 -0.00603807671 0 
-0.3335583806 -0.0084725189954 0 -0.39039802551 -0.0093796374276 0 -0.43723067641 -0.0086053479463 0 
-0.4723585546 -0.0069802487269 0 -0.494779706 -0.0042306212708 0 -0.50381487608 -0.0017048848094 0 
-0.10217835754 0.0002480444964 0 -0.10311936587 0.00067707028938 0 -0.10370488465 0.0011536323 0 
-0.10401503742 0.0015748700825 0 -0.10412424803 0.0020156211685 0 -0.10409610718 0.0024266026448 0 
-0.10397341102 0.0028497788589 0 -0.10378297418 0.0032616814133 0 -0.10353848338 0.0036844941787 0 
-0.10324525833 0.0041058543138 0 -0.10290446877 0.0045373439789 0 -0.10251320153 0.0049717086367 0 
-0.10206879675 0.0054155662656 0 -0.10156470537 0.0058637750335 0 -0.10099694878 0.0063208872452 0 
-0.10035569221 0.0067820255645 0 -0.099636100233 0.007251045201 0 -0.098823815584 0.0077221640386 0 
-0.09791315347 0.0081989690661 0 -0.096883051097 0.0086742630228 0 -0.095726706088 0.0091507136822 0 
-0.094413228333 0.0096203554422 0 -0.092934347689 0.010082043707 0 -0.091246955097 0.010530187748 0 
-0.089346282184 0.010950895026 0 -0.087197653949 0.011347862892 0 -0.084881201386 0.011663566343 0 
-0.082660444081 0.011904234998 0 -0.081626981497 0.011819598265 0 -0.085059836507 0.011212444864 0 
-0.10056966543 0.0089963274077 0 -0.1378133148 0.0047949440777 0 -0.19846221805 -0.0012119000312 0 
-0.26743623614 -0.005960511975 0 -0.33265766501 -0.0084888087586 0 -0.39035269618 -0.0094525264576 0 
-0.4378747344 -0.0086841993034 0 -0.47348606586 -0.0070444932207 0 -0.4962015748 -0.0042681326158 0 
-0.50536829233 -0.0017186983023 0 -0.10241803527 0.00024842994753 0 -0.10335621238 0.00067771313479 0 
-0.10393612832 0.0011544101872 0 -0.10424007475 0.0015753136249 0 -0.10434439033 0.0020157818217 0 
-0.10431336612 0.002426573541 0 -0.10418988019 0.0028499865439 0 -0.10400027782 0.0032625263557 0 
-0.10375782102 0.0036865407601 0 -0.10346737504 0.0041095823981 0 -0.10312987119 0.0045433999039 0 
-0.10274212807 0.0049806260504 0 -0.10230143368 0.0054281284101 0 -0.10180097818 0.0058805760927 0 
-0.10123685002 0.00634289952 0 -0.10059878975 0.0068098767661 0 -0.09988219291 0.007285929285 0 
-0.099071964622 0.0077646733262 0 -0.098162904382 0.0082505317405 0 -0.097132645547 0.0087353223935 0 
-0.095975413918 0.0092229116708 0 -0.094657979906 0.0097038326785 0 -0.093174032867 0.01017856691 0 
-0.091475978494 0.010639479384 0 -0.089562170208 0.011074699461 0 -0.08738707751 0.011485897936 0 
-0.085029572248 0.011818071827 0 -0.082709513605 0.012079104781 0 -0.081456393003 0.01202486828 0 
-0.084351599216 0.011477147229 0 -0.098913691938 0.0093434350565 0 -0.13516502082 0.0051900511608 0 
-0.19561743736 -0.00094716792228 0 -0.26552653313 -0.005876833573 0 -0.33172687888 -0.0085039278492 0 
-0.39029195905 -0.0095250522718 0 -0.43851339817 -0.0087631382048 0 -0.47461092472 -0.0071077635512 0 
-0.49761977792 -0.0043049147353 0 -0.50691640377 -0.0017319525359 0 -0.10265506059 0.00024869237677 0 
-0.10359028727 0.00067800469697 0 -0.10416451097 0.0011545679299 0 -0.10446221381 0.0015748784645 0 
-0.10456173867 0.0020147971809 0 -0.10452800244 0.0024251523428 0 -0.10440395027 0.0028485630173 0 
-0.10421541333 0.0032615123782 0 -0.10397524387 0.0036865083966 0 -0.10368783027 0.0041110175662 0 
-0.1033538878 0.0045469645411 0 -0.10296995193 0.004986861255 0 -0.10253329575 0.0054378472269 0 
-0.10203682631 0.0058943838812 0 -0.10147672892 0.0063618198037 0 -0.10084228963 0.006834550295 0 
-0.1001291573 0.0073176319711 0 -0.099321447313 0.0078040049411 0 -0.098414503038 0.0082990508527 0 
-0.097384609282 0.0087934546173 0 -0.096227034926 0.0092925019562 0 -0.094906136394 0.0097849406302 0 
-0.093417659402 0.010273287073 0 -0.091709390283 0.010747290216 0 -0.089783065021 0.011197887361 0 
-0.087582245469 0.011623529717 0 -0.085185714066 0.011973288842 0 -0.08277104795 0.012254082598 0 
-0.081310495734 0.012230953202 0 -0.083688408136 0.011739939451 0 -0.097311586142 0.0096915718168 0 
-0.13252961636 0.0055927857757 0 -0.19272464514 -0.00066880765371 0 -0.26356783509 -0.0057864650153 0 
-0.33076545596 -0.0085178716108 0 -0.39021578431 -0.0095970463008 0 -0.43914690614 -0.0088420668617 0 
-0.47573322058 -0.0071698538959 0 -0.49903404713 -0.0043408363126 0 -0.50845873356 -0.0017445803387 0 
-0.10288935155 0.00024882986327 0 -0.10382151604 0.0006779396208 0 -0.10438992828 0.0011540951673 0 
-0.10468137264 0.0015735485358 0 -0.10477618873 0.0020126460586 0 -0.1047399193 0.0024223125074 0 
-0.10461552441 0.0028454752173 0 -0.10442829877 0.0032585987356 0 -0.1041906625 0.0036843474954 0 
-0.10390652716 0.0041101006791 0 -0.10357641429 0.0045479661785 0 -0.10319659114 0.0049903304316 0 
-0.102764301 0.0054446244612 0 -0.1022721827 0.0059050857089 0 -0.1017165035 0.006377519574 0 
-0.10108611733 0.0068559003994 0 -0.10037691891 0.0073459921405 0 -0.099572233856 0.0078399805352 0 
-0.098667956889 0.0083443336189 0 -0.097638934851 0.0088484529406 0 -0.096481613815 0.0093592749909 0 
-0.095157764852 0.0098634632304 0 -0.093665353954 0.010365992785 0 -0.091947317123 0.010853412561 0 
-0.090009123087 0.011320273392 0 -0.087783299387 0.011760593392 0 -0.085349626839 0.012129092589 0 
-0.08284470439 0.012429083697 0 -0.081188313663 0.012437846512 0 -0.083069160581 0.01200069394 0 
-0.095764830709 0.010040362366 0 -0.12991042435 0.0060024256818 0 -0.18978539109 -0.00037570559653 0 
-0.26155814528 -0.0056887171231 0 -0.3297727108 -0.0085306623951 0 -0.39012417197 -0.0096682943404 0 
-0.43977549672 -0.0089208623394 0 -0.47685307264 -0.0072305314243 0 -0.50044411421 -0.0043757436797 0 
-0.50999474525 -0.0017565096496 0 -0.10312081873 0.0002488407481 0 -0.10404978693 0.00067751324968 0 
-0.10461228341 0.0011529824696 0 -0.10489744693 0.0015713098692 0 -0.10498765111 0.0020093091298 0 
-0.1049490273 0.0024180295877 0 -0.10482450575 0.0028406921774 0 -0.10463882983 0.0032537479419 0 
-0.10440396518 0.0036800117232 0 -0.10412336141 0.0041067749262 0 -0.1037973538 0.0045463368297 0 
-0.10342193395 0.0049909520894 0 -0.10299434513 0.0054483646527 0 -0.10250692815 0.0059125707485 0 
-0.10195608437 0.006389870774 0 -0.1013301909 0.0068737817928 0 -0.10062541813 0.0073708472773 0 
-0.099824264646 0.0078724194318 0 -0.098923221231 0.0083861853927 0 -0.097895644605 0.0089001096785 0 
-0.096739187837 0.0094230119139 0 -0.095412947237 0.0099391750991 0 -0.09391721338 0.010456462391 0 
-0.092189922929 0.010957631283 0 -0.090240515769 0.011441659182 0 -0.087990395725 0.011896921322 0 
-0.085521318018 0.012285359204 0 -0.082930184901 0.012604029849 0 -0.081088908017 0.012645574287 0 
-0.082492664456 0.01225930173 0 -0.094274654984 0.010389552452 0 -0.12731099129 0.0064180130139 0 
-0.18680159748 -6.6749707912e-05 0 -0.25949528813 -0.0055827964097 0 -0.32874798775 -0.00854235515 0 
-0.39001718163 -0.0097385421395 0 -0.44039946795 -0.0089993681759 0 -0.47797054052 -0.0072895316407 0 
-0.50184977055 -0.0044094603509 0 -0.51152390242 -0.0017676637508 0 -0.10334937274 0.0002487237216 0 
-0.10427501053 0.00067672180012 0 -0.10483147949 0.0011512215715 0 -0.10511033982 0.0015681497753 0 
-0.1051960364 0.0020047693979 0 -0.10515522957 0.0024122819304 0 -0.10503081232 0.0028341871221 0 
-0.10484691709 0.0032469255384 0 -0.10461506248 0.0036734584719 0 -0.10433823615 0.0041009876877 0 
-0.10401660204 0.0045420126989 0 -0.10364587605 0.00498864986 0 -0.10322331637 0.0054489769973 0 
-0.10274098068 0.0059167305008 0 -0.10219538212 0.0063987495378 0 -0.10157443583 0.0068880510516 0 
-0.10087459534 0.0073920353316 0 -0.10007750243 0.0079011404887 0 -0.099180281162 0.0084244096652 0 
-0.098154731095 0.0089482078329 0 -0.096999786794 0.0094834873453 0 -0.095671743155 0.010011840612 0 
-0.09417334944 0.010544461198 0 -0.09243734926 0.011059721932 0 -0.090477392077 0.011561839841 0 
-0.088203690946 0.012032341212 0 -0.085700817406 0.012441962957 0 -0.083027228713 0.012778853066 0 
-0.081011332572 0.012854189612 0 -0.08195772022 0.012515682727 0 -0.092841982841 0.010738995858 0 
-0.12473504245 0.0068383696489 0 -0.18377570808 0.00025917976745 0 -0.25737687945 -0.0054678097367 0 
-0.32769042253 -0.0085530346259 0 -0.3898948431 -0.009807494469 0 -0.44101905823 -0.0090773934498 0 
-0.47908568382 -0.007346556522 0 -0.50325059891 -0.0044417828321 0 -0.5130456686 -0.0017779609188 0 
-0.10357493162 0.00024847770692 0 -0.10449710488 0.00067556212889 0 -0.10504742712 0.0011488057207 0 
-0.10531996191 0.0015640574275 0 -0.10540124774 0.0019990121946 0 -0.1053584516 0.0024050504435 0 
-0.10523434728 0.0028259358369 0 -0.10505246371 0.003238101257 0 -0.1048238501 0.003664648626 0 
-0.10455104709 0.0040926900692 0 -0.10423404723 0.0045349337161 0 -0.10386831313 0.0049833497033 0 
-0.10345111042 0.0054463725537 0 -0.10297422111 0.005917460192 0 -0.10243429244 0.0064040319994 0 
-0.10181874782 0.0068985652179 0 -0.10112435371 0.0074093951844 0 -0.1003318727 0.0079259602353 0 
-0.09943908453 0.0084588043392 0 -0.098416186869 0.0089925276116 0 -0.097263433039 0.0095404684544 0 
-0.095934219658 0.010081218556 0 -0.094433866441 0.010629748926 0 -0.092689737678 0.011159450747 0 
-0.090719938278 0.011680597439 0 -0.088423348963 0.01216667518 0 -0.085888184607 0.012598773465 0 
-0.083135612309 0.012953502126 0 -0.080954708159 0.013063766062 0 -0.081463076174 0.012769801542 0 
-0.091467425227 0.011088638566 0 -0.12218640745 0.007262120489 0 -0.18071062863 0.00060320191551 0 
-0.25520023704 -0.0053427712992 0 -0.32659927011 -0.0085628097877 0 -0.38975730538 -0.0098748188466 0 
-0.44163459539 -0.0091546988115 0 -0.48019859195 -0.0074012731202 0 -0.50464624166 -0.0044724768959 0 
-0.51455938816 -0.0017873143079 0 -0.10379741341 0.00024810209288 0 -0.10471598804 0.00067403214052 0 
-0.10526002944 0.0011457294459 0 -0.10552622378 0.0015590240946 0 -0.10560320318 0.0019920251798 0 
-0.1055585891 0.0023963192943 0 -0.10543502122 0.0028159173671 0 -0.10525536537 0.0032272473909 0 
-0.10503022373 0.0036535474937 0 -0.1047616899 0.0040818378329 0 -0.10444958508 0.004525043536 0 
-0.10408913344 0.0049749827012 0 -0.10367761552 0.0054404675029 0 -0.10320654511 0.0059146592394 0 
-0.10267270356 0.006405599881 0 -0.10206303 0.0069051850587 0 -0.10137461871 0.0074227652512 0 
-0.10058731586 0.0079466952011 0 -0.09969958663 0.0084891654551 0 -0.098679982126 0.0090328436345 0 
-0.097530141473 0.0095937186852 0 -0.096200421453 0.010147056542 0 -0.094698868692 0.010712071322 0 
-0.092947222292 0.011256569996 0 -0.090968333185 0.011797703803 0 -0.088649556041 0.012299741618 0 
-0.086083501577 0.01275565289 0 -0.083255186677 0.013127938844 0 -0.080918170512 0.0132743828 0 
-0.081007480621 0.013021690771 0 -0.090151213109 0.011438515037 0 -0.11966901273 0.0076877311803 0 
-0.1776099354 0.00096640805714 0 -0.25296241045 -0.0052066151984 0 -0.32547357678 -0.0085718026385 0 
-0.38960471749 -0.0099401446059 0 -0.44224631786 -0.0092309927568 0 -0.4813093245 -0.0074533079751 0 
-0.50603628159 -0.0045012738556 0 -0.51606428623 -0.0017956306692 0 -0.10401673615 0.00024759647204 0 
-0.10493157059 0.00067213043803 0 -0.10546921194 0.0011419885559 0 -0.10572903603 0.001553042559 0 
-0.1058018133 0.0019837983418 0 -0.10575556755 0.0023860754445 0 -0.10563274473 0.0028041144833 0 
-0.10545554757 0.0032143413555 0 -0.10523409396 0.0036401243415 0 -0.10497006029 0.0040683913976 0 
-0.10466309637 0.0045122914016 0 -0.10430821776 0.0049634850584 0 -0.10390271991 0.0054311836138 0 
-0.10343784094 0.0059082307853 0 -0.1029105112 0.0064033372328 0 -0.10230718553 0.0069077722728 0 
-0.10162528604 0.0074319872074 0 -0.10084374249 0.0079631619155 0 -0.099961742759 0.008515288122 0 
-0.098946087062 0.0090689277276 0 -0.097799919546 0.009642990306 0 -0.096470408142 0.01020909287 0 
-0.094968438148 0.010791163892 0 -0.093209959567 0.011350823566 0 -0.09122274816 0.011912916787 0 
-0.088882505894 0.012431352399 0 -0.086286880076 0.012912456878 0 -0.083385840058 0.013302149251 0 
-0.080900900066 0.013486127369 0 -0.080589704216 0.013271475211 0 -0.088893190026 0.011788733304 0 
-0.11718679219 0.0081135854125 0 -0.17447780073 0.0013498101616 0 -0.25066024065 -0.005058221519 0 
-0.3243123889 -0.0085801258683 0 -0.38943737745 -0.010003067553 0 -0.44285455346 -0.0093059130013 0 
-0.48241788149 -0.0075022443198 0 -0.50742024183 -0.004527867306 0 -0.51755970716 -0.0018028097693 0 
-0.10423283279 0.00024696087348 0 -0.10514376312 0.00066985655576 0 -0.10567487776 0.0011375803733 0 
-0.10592832416 0.0015461076982 0 -0.10599698871 0.0019743242301 0 -0.10594929755 0.0023743086495 0 
-0.10582743585 0.0027905132156 0 -0.10565289855 0.0031993633602 0 -0.1054353565 0.0036243526265 0 
-0.10517604649 0.0040523144417 0 -0.10487448424 0.0044966316782 0 -0.10452545434 0.0049487976357 0 
-0.10412629694 0.005418445915 0 -0.10366797447 0.0058980830945 0 -0.10314758867 0.0063971327618 0 
-0.10255108774 0.0069061936811 0 -0.10187625885 0.0074369031936 0 -0.10110106319 0.0079751769081 0 
-0.10022546351 0.0085369646549 0 -0.099214464426 0.009100546129 0 -0.098072759807 0.009688032791 0 
-0.096744202077 0.010267058387 0 -0.095242679119 0.010866750963 0 -0.093478068709 0.011441937648 0 
-0.091483384371 0.012025982141 0 -0.089122414589 0.012561306357 0 -0.086498484015 0.013069027103 0 
-0.083527520299 0.013476136141 0 -0.080902159214 0.013699078932 0 -0.080208532512 0.013519408181 0 
-0.087692789733 0.01213946566 0 -0.11474364251 0.008538111113 0 -0.17131911218 0.0017542534042 0 
-0.24829031527 -0.004896461498 0 -0.32311472297 -0.0085878456011 0 -0.38925558329 -0.010063151829 0 
-0.44345957041 -0.0093790190294 0 -0.48352429271 -0.007547615096 0 -0.50879752636 -0.0045519066043 0 
-0.51904463768 -0.0018087427597 0 -0.10444562137 0.00024619570468 0 -0.10535250604 0.00066721095936 0 
-0.10587695241 0.0011325036176 0 -0.10612399131 0.0015382159036 0 -0.1061886698 0.0019635977224 0 
-0.10613970459 0.0023610116914 0 -0.10601900518 0.0027751033194 0 -0.1058473438 0.0031822989695 0 
-0.10563391447 0.0036062106956 0 -0.1053795442 0.0040335776284 0 -0.10508362949 0.0044780233875 0 
-0.10474072397 0.0049308673479 0 -0.10434821993 0.0054021859542 0 -0.10389684141 0.0058841300197 0 
-0.10338382423 0.0063868793659 0 -0.10279463232 0.0069003188983 0 -0.10212741792 0.0074373586103 0 
-0.10135918856 0.0079825585708 0 -0.10049068183 0.0085539873689 0 -0.099485062063 0.0091274622828 0 
-0.098348639905 0.0097285863012 0 -0.097021840513 0.010320671834 0 -0.09552166611 0.010938545689 0 
-0.093751691282 0.011529627256 0 -0.091750435531 0.01213662792 0 -0.089369490743 0.012689393014 0 
-0.08671849966 0.013225193135 0 -0.083680219948 0.01364991907 0 -0.080921307206 0.013913311064 0 
-0.079862810671 0.013765896671 0 -0.086549051106 0.01249092631 0 -0.11234331876 0.0089599918574 0 
-0.16813930869 0.0021802734118 0 -0.24584902823 -0.004720271565 0 -0.32187962532 -0.0085949180648 0 
-0.38905978203 -0.010119932704 0 -0.44406172633 -0.0094497716054 0 -0.48462849855 -0.0075888992287 0 
-0.51016759872 -0.0045729959384 0 -0.52051830292 -0.0018133099657 0 -0.10465504229 0.00024530169321 0 
-0.10555772483 0.000664194813 0 -0.10607536137 0.0011267581722 0 -0.10631597042 0.0015293660108 0 
-0.10637675971 0.0019516167231 0 -0.10632670671 0.0023461808451 0 -0.10620737076 0.0027578780428 0 
-0.10603877902 0.0031631367747 0 -0.10582967103 0.0035856813192 0 -0.10558045655 0.0040121558122 0 
-0.1052904129 0.0044564306736 0 -0.10495390743 0.004909645766 0 -0.10456838459 0.0053823408671 0 
-0.10412430018 0.0058662905358 0 -0.10361907631 0.0063724759966 0 -0.10303767771 0.0068900226615 0 
-0.10237864405 0.007433203049 0 -0.10161799937 0.0079851243645 0 -0.10075730085 0.0085661476478 0 
-0.099757820368 0.009149434045 0 -0.09862754494 0.0097643891349 0 -0.097303330898 0.010369642638 0 
-0.095805473626 0.011006247252 0 -0.094030961394 0.011613587849 0 -0.092024110258 0.012244566344 0 
-0.089623980224 0.0128153814 0 -0.086947157979 0.013380764052 0 -0.08384399116 0.013823530637 0 
-0.0809578076 0.014128880575 0 -0.079551421106 0.014011530206 0 -0.085460692644 0.012843348086 0 
-0.10998933762 0.0093785077333 0 -0.16494444013 0.0026278775185 0 -0.24333262444 -0.0045287688263 0 
-0.32060608268 -0.0086010955274 0 -0.38885039091 -0.010172918439 0 -0.44466128945 -0.0095175234601 0 
-0.48573049903 -0.0076255095191 0 -0.51152974367 -0.004590687342 0 -0.52197962999 -0.0018163789064 0 
-0.10486102849 0.00024428003235 0 -0.10575933754 0.00066081032855 0 -0.10627001524 0.001120345667 0 
-0.10650418699 0.0015195583692 0 -0.10656119138 0.0019383811159 0 -0.10651023686 0.0023298151791 0 
-0.10639245808 0.0027388345916 0 -0.1062271297 0.0031418700237 0 -0.1060225293 0.0035627526231 0 
-0.10577866435 0.0039880294353 0 -0.10549472272 0.0044318246655 0 -0.10516488552 0.004885091912 0 
-0.1047866419 0.0053588538431 0 -0.10435021669 0.0058444906026 0 -0.10385321081 0.0063538271934 0 
-0.10328009725 0.0068751852959 0 -0.10262980312 0.0074242893606 0 -0.10187738389 0.0079826982692 0 
-0.10102522373 0.0085732387379 0 -0.10003265738 0.0091662211344 0 -0.098909422755 0.0097951712087 0 
-0.097588688135 0.010413670912 0 -0.096094176173 0.011069544591 0 -0.094316005707 0.011693496257 0 
-0.092304624617 0.012349491008 0 -0.089886121452 0.012939015403 0 -0.087184756994 0.013535528444 0 
-0.084018960595 0.013996997848 0 -0.081011280417 0.014345821925 0 -0.079273357987 0.014257091098 0 
-0.084426261485 0.01319695171 0 -0.10768486559 0.0097939874977 0 -0.16174094379 0.0030962515157 0 
-0.24073752761 -0.0043213889003 0 -0.31929323077 -0.0086058042943 0 -0.38862794638 -0.010221597739 0 
-0.4452586472 -0.0095815071836 0 -0.48683011532 -0.0076567884535 0 -0.51288318634 -0.0046044802293 0 
-0.52342742682 -0.0018178019673 0 -0.10506352037 0.00024313222093 0 -0.10595728457 0.00065706047462 0 
-0.10646086186 0.0011132687796 0 -0.10668855906 0.001508795307 0 -0.10674190521 0.0019238935784 0 
-0.10669021308 0.0023119174875 0 -0.10657418519 0.0027179741301 0 -0.10641230643 0.0031184970867 0 
-0.106212385 0.0035374169238 0 -0.10597407073 0.0039611835964 0 -0.10569645464 0.0044041811489 0 
-0.10537353158 0.0048571703956 0 -0.10500287265 0.0053316759877 0 -0.10457446426 0.005818661768 0 
-0.10408608615 0.0063308435492 0 -0.10352174938 0.0068556917831 0 -0.10288076848 0.0074104750529 0 
-0.10213720798 0.0079751051962 0 -0.10129433125 0.0085750520229 0 -0.10030947626 0.0091775767505 0 
-0.0991942361 0.0098206568509 0 -0.097877889872 0.010452446528 0 -0.096387825906 0.011128111742 0 
-0.094606928527 0.011769009754 0 -0.092592187226 0.012451073155 0 -0.090156167746 0.013060013764 0 
-0.087431617081 0.013689253479 0 -0.084205269814 0.014170327224 0 -0.081081546843 0.014564147219 0 
-0.07902764529 0.014503529295 0 -0.083444334567 0.013551897369 0 -0.10543234646 0.010208514519 0 
-0.15853382647 0.0035831774585 0 -0.23806147277 -0.004098109901 0 -0.31794053316 -0.0086078885943 0 
-0.38839295506 -0.010265429504 0 -0.44585412741 -0.009640824981 0 -0.48792722821 -0.0076819942333 0 
-0.51422697306 -0.0046138162725 0 -0.52486050129 -0.001817413955 0 -0.10526247323 0.00024186028168 0 
-0.10615151376 0.00065294915112 0 -0.10664781928 0.0011055317009 0 -0.10686903447 0.0014970810153 0 
-0.1069188267 0.0019081594655 0 -0.10686657578 0.0022924928926 0 -0.10675247759 0.002695301082 0 
-0.1065942198 0.0030930195935 0 -0.10639915615 0.003509671893 0 -0.10616657138 0.0039316103794 0 
-0.105895482 0.0043734838255 0 -0.1055797264 0.0048258528113 0 -0.10521693528 0.0053007630631 0 
-0.10479689389 0.0057887444273 0 -0.10431755334 0.0063034431078 0 -0.10376247764 0.006831435021 0 
-0.10313137621 0.007391623687 0 -0.10239733011 0.007962172851 0 -0.10156448931 0.008571382612 0 
-0.10058818758 0.0091832568869 0 -0.099481895566 0.0098405685276 0 -0.098170921206 0.010485647246 0 
-0.096686460078 0.011181609705 0 -0.094903849065 0.011839764193 0 -0.092887021601 0.012548962608 0 
-0.090434387326 0.013178054243 0 -0.08768812567 0.013841673732 0 -0.084403149784 0.01434348058 0 
-0.081168621778 0.014783839695 0 -0.078813426197 0.014751899056 0 -0.082514099777 0.013908341527 0 
-0.10323294997 0.010627965443 0 -0.15532942116 0.0040836296976 0 -0.23530113697 -0.0038602666464 0 
-0.31654787064 -0.0086049912497 0 -0.38814565539 -0.010303796269 0 -0.44644811749 -0.0096944635734 0 
-0.48902153969 -0.0077002923936 0 -0.51556015015 -0.0046180770732 0 -0.5262774229 -0.0018150302349 0 
-0.10545782 0.00024046658655 0 -0.1063419506 0.00064848101465 0 -0.10683082789 0.0010971400188 0 
-0.10704554617 0.0014844217803 0 -0.10709189624 0.001891186228 0 -0.10703925788 0.002271550009 0 
-0.10692726076 0.0026708235964 0 -0.10677278787 0.0030654440634 0 -0.10658274591 0.0034795205574 0 
-0.10635606945 0.0038993065245 0 -0.10609170049 0.0043397210538 0 -0.10578334332 0.0047911177389 0 
-0.10542870313 0.0052660806105 0 -0.10501736403 0.0057546845637 0 -0.10454747081 0.0062715513632 0 
-0.10400213301 0.0068023139611 0 -0.10338146985 0.0073676044121 0 -0.10265759379 0.0079437373206 0 
-0.10183557123 0.0085620284081 0 -0.10086867213 0.0091830138117 0 -0.099772326648 0.0098546231166 0 
-0.098467752337 0.010512945242 0 -0.096990115941 0.01122968737 0 -0.095206856728 0.011905371211 0 
-0.093189328909 0.012642787769 0 -0.090721048415 0.013292777352 0 -0.087954707444 0.013992494904 0 
-0.084612853825 0.014516345225 0 -0.081272758543 0.015004852787 0 -0.078629985452 0.015003127977 0 
-0.08163625747 0.014266597107 0 -0.10108716041 0.011061224155 0 -0.15213565528 0.0045921904966 0 
-0.23245316744 -0.0036110542715 0 -0.31511518359 -0.0085939839482 0 -0.38788610697 -0.010336016305 0 
-0.44704088569 -0.0097413398325 0 -0.49011278152 -0.0077107502148 0 -0.51688164473 -0.0046165809035 0 
-0.52767670155 -0.0018104449846 0 -0.10564953089 0.00023895397317 0 -0.10652855039 0.00064366159495 0 
-0.10700982809 0.0010881004855 0 -0.10721803457 0.0014708252857 0 -0.10726105422 0.0018729841104 0 
-0.10720819235 0.0022491011769 0 -0.1070984751 0.002644554479 0 -0.10694794357 0.0030357819051 0 
-0.10676306486 0.0034469706006 0 -0.10654246062 0.0038642755244 0 -0.10628499091 0.004302888643 0 
-0.10598425567 0.0047529512085 0 -0.10563803464 0.0052275997587 0 -0.10523573309 0.0057164384052 0 
-0.10477567464 0.0062351017259 0 -0.10424054414 0.0067682368681 0 -0.10363089293 0.0073382938281 0 
-0.10291785002 0.0079196374863 0 -0.10210741311 0.0085467901081 0 -0.10115078837 0.0091766016558 0 
-0.10006542504 0.0098625328392 0 -0.098768308759 0.010534001514 0 -0.097298800945 0.011271978728 0 
-0.095516048372 0.011965420097 0 -0.093499325216 0.012732149102 0 -0.091016426682 0.013403776102 0 
-0.088231794536 0.014141387306 0 -0.084834687412 0.014688706025 0 -0.081394352019 0.015227077529 0 
-0.078476756811 0.015257602558 0 -0.080812484026 0.014626690187 0 -0.09899597615 0.011510418728 0 
-0.14894083142 0.0051108901389 0 -0.22952789068 -0.00335213379 0 -0.31364268064 -0.0085736308247 0 
-0.38761419058 -0.010361445136 0 -0.44763287902 -0.0097803464159 0 -0.49120056629 -0.0077123269439 0 
-0.5181902051 -0.00460857898 0 -0.52905672789 -0.001803428866 0 -0.10583756119 0.00023732575937 0 
-0.10671126842 0.00063849717844 0 -0.10718476772 0.0010784211336 0 -0.10738644749 0.0014563010773 0 
-0.10742624849 0.0018535658019 0 -0.10737333447 0.0022251605988 0 -0.10726605356 0.0026165090967 0 
-0.10711960495 0.0030040480196 0 -0.10694003105 0.0034120348282 0 -0.10672564059 0.0038265262265 0 
-0.10647524893 0.0042629884556 0 -0.10618235171 0.0047113457695 0 -0.10584480315 0.0051853014156 0 
-0.10545185208 0.0056739691645 0 -0.10500200093 0.0061940359883 0 -0.10447755456 0.0067291194573 0 
-0.10387945175 0.0073035769165 0 -0.10317791253 0.0078897206113 0 -0.10237983614 0.008525473997 0 
-0.10143438727 0.0091637773439 0 -0.10036107153 0.0098640127108 0 -0.099072530866 0.010548467748 0 
-0.097612507641 0.011308105662 0 -0.095831491053 0.012019476853 0 -0.093817196786 0.012816623785 0 
-0.09132079035 0.01351059787 0 -0.088519848883 0.014287983067 0 -0.085069000721 0.014860248193 0 
-0.081533849239 0.015450345352 0 -0.078353174031 0.015515238978 0 -0.080043815076 0.014988304116 0 
-0.096961386502 0.01197163295 0 -0.14574851096 0.0056428541429 0 -0.22652450204 -0.0030804832932 0 
-0.31213030219 -0.0085442159325 0 -0.38733011484 -0.010379346088 0 -0.44822448492 -0.0098102977499 0 
-0.49228444695 -0.0077038556337 0 -0.51948434114 -0.0045932396315 0 -0.53041559458 -0.001793726231 0 
-0.1060218662 0.00023558569956 0 -0.10689005256 0.00063299475005 0 -0.10735559464 0.0010681112763 0 
-0.10755072534 0.0014408604475 0 -0.10758743435 0.0018329462036 0 -0.10753462464 0.0021997464355 0 
-0.10742992908 0.00258670724 0 -0.10728770494 0.0029702626634 0 -0.10711355507 0.0033747318666 0 
-0.10690551996 0.003786073532 0 -0.10666236281 0.0042200298049 0 -0.10637749732 0.0046663028188 0 
-0.10604885966 0.0051391730085 0 -0.10566556454 0.0056272493675 0 -0.10522629321 0.0061483057216 0 
-0.10471298546 0.0066848872229 0 -0.10412697494 0.0072633465752 0 -0.10343759507 0.0078538414091 0 
-0.1026526764 0.0084978919476 0 -0.10171930492 0.0091442996636 0 -0.1006591171 0.0098587712273 0 
-0.099380321801 0.010555992834 0 -0.097931206226 0.011337680742 0 -0.096153229475 0.012067082338 0 
-0.094143129885 0.012895761989 0 -0.09163440764 0.013612740673 0 -0.088819339871 0.014431877062 0 
-0.085316151381 0.015030567534 0 -0.081691689789 0.015674456954 0 -0.078258663416 0.015775790438 0 
-0.079330489039 0.015351296403 0 -0.09498526901 0.012442142703 0 -0.14255842566 0.0061897523701 0 
-0.22344492376 -0.002793278778 0 -0.31057780981 -0.0085054999217 0 -0.38703429699 -0.010388773866 0 
-0.44881618023 -0.0098298545927 0 -0.49336391687 -0.0076840212569 0 -0.52076268196 -0.0045696417801 0 
-0.53175127506 -0.0017810509307 0 -0.10620242357 0.00023373808654 0 -0.10706486553 0.00062716205139 0 
-0.10752225667 0.0010571810417 0 -0.10771083832 0.0014245163184 0 -0.1077445671 0.0018111424288 0 
-0.1076920256 0.002172879409 0 -0.10759005696 0.0025551719591 0 -0.10745216906 0.0029344493523 0 
-0.10728356242 0.0033350843005 0 -0.10708200186 0.0037429381628 0 -0.10684622824 0.0041740285233 0 
-0.10656957328 0.0046178298071 0 -0.10625007004 0.0050892117433 0 -0.10587671399 0.0055762613192 0 
-0.10544837266 0.0060978718102 0 -0.10494664311 0.0066354754381 0 -0.10437326878 0.0072175050154 0 
-0.10369670391 0.007811863441 0 -0.10292571783 0.0084638614208 0 -0.10200535506 0.0091179320589 0 
-0.1009594053 0.0098465206102 0 -0.099691562355 0.010556217283 0 -0.098254837096 0.011360299774 0 
-0.09648130089 0.012107758783 0 -0.094477273524 0.012969086878 0 -0.091957531869 0.013709657826 0 
-0.089130721986 0.014572628774 0 -0.085576526821 0.01519917883 0 -0.081868343055 0.015899185091 0 
-0.078192658722 0.016038918868 0 -0.078672356904 0.015715587884 0 -0.093069724739 0.012919865549 0 
-0.13937279582 0.0067524574697 0 -0.22029024363 -0.0024879053235 0 -0.30898469687 -0.0084568485618 0 
-0.38672739267 -0.010388598777 0 -0.44940853119 -0.0098374849185 0 -0.49443840981 -0.0076513369568 0 
-0.5220233202 -0.004536758177 0 -0.53306162357 -0.0017650828231 0 -0.1063792035 0.00023178766423 0 
-0.10723566264 0.00062100752257 0 -0.10768471658 0.0010456418386 0 -0.10786673427 0.001407283009 0 
-0.10789760947 0.0017881738022 0 -0.10784547776 0.0021445828024 0 -0.10774637014 0.0025219297968 0 
-0.10761293769 0.0028966367245 0 -0.10744997859 0.0032931210008 0 -0.1072549969 0.0036971471272 0 
-0.10702673346 0.0041250064969 0 -0.10675846785 0.0045659439638 0 -0.10644830018 0.0050354227424 0 
-0.10608515888 0.0055209952407 0 -0.10566806793 0.0060427044518 0 -0.10517835617 0.0065808296204 0 
-0.10461812466 0.0071659646928 0 -0.10395503789 0.0077636600472 0 -0.10319875181 0.0084232091904 0 
-0.10229235142 0.0090844444931 0 -0.10126174241 0.0098269721493 0 -0.10000611842 0.010548776947 0 
-0.098583325744 0.011375552043 0 -0.096815720201 0.012141003273 0 -0.094819761813 0.0130360974 0 
-0.09229041636 0.013800755143 0 -0.089454449713 0.014709759504 0 -0.085850521922 0.015365528874 0 
-0.082064270973 0.016124278307 0 -0.07815464586 0.016304248944 0 -0.078069008887 0.016081193462 0 
-0.091216735542 0.013403363526 0 -0.13619454205 0.0073312208988 0 -0.21706151962 -0.002162006218 0 
-0.3073502779 -0.0083973165601 0 -0.38641011715 -0.010377510451 0 -0.45000213385 -0.0098314359784 0 
-0.4955072701 -0.0076041305438 0 -0.52326446772 -0.004493446555 0 -0.53434425592 -0.0017454633489 0 
-0.10655218363 0.00022973975865 0 -0.10740242153 0.00061454018578 0 -0.10784293711 0.0010335061233 0 
-0.10801837593 0.0013891763519 0 -0.10804651678 0.0017640618607 0 -0.10799495131 0.0021148831584 0 
-0.10789883882 0.0024870105553 0 -0.10776995122 0.0028568571433 0 -0.10761271417 0.0032488745637 0 
-0.1074244231 0.0036487327889 0 -0.1072037816 0.0040729939938 0 -0.10694404691 0.004510668572 0 
-0.10664340854 0.0049778204411 0 -0.1062907353 0.0054614534602 0 -0.1058852151 0.0059827854857 0 
-0.10540793091 0.0065209078602 0 -0.10486133397 0.0071086506359 0 -0.10421236604 0.007709115278 0 
-0.10347154737 0.0083757704124 0 -0.10258005559 0.0090436134487 0 -0.10156592727 0.0097998417914 0 
-0.10032381862 0.010533306748 0 -0.098916560411 0.011383014731 0 -0.097156465054 0.012166294269 0 
-0.095170706511 0.013096264564 0 -0.09263329953 0.013885393739 0 -0.089790962636 0.014842751436 0 
-0.086138576269 0.015528993681 0 -0.082279995084 0.016349466518 0 -0.078144177794 0.016571393237 0 
-0.077519878745 0.016448192298 0 -0.089428134263 0.013891654089 0 -0.13302730024 0.0079258084297 0 
-0.21375992894 -0.0018133854028 0 -0.30567374825 -0.0083257062361 0 -0.38608342409 -0.010354023427 0 
-0.45059758425 -0.0098097082227 0 -0.49656969309 -0.0075405226089 0 -0.52448391914 -0.0044384370558 0 
-0.5355963707 -0.0017217922723 0 -0.10672135651 0.00022760021966 0 -0.10756510496 0.00060776958708 0 
-0.10799687356 0.0010207870509 0 -0.10816574842 0.0013702135766 0 -0.10819126666 0.0017388297711 0 
-0.10814040899 0.0020838093478 0 -0.10804739594 0.0024504472967 0 -0.10792315006 0.0028151469305 0 
-0.10777172446 0.0032023831736 0 -0.10759019107 0.0035977340303 0 -0.10737726837 0.0040180259384 0 
-0.10712620616 0.0044520352967 0 -0.10683526099 0.0049164267257 0 -0.10649329424 0.0053976462223 0 
-0.10609962791 0.0059181069955 0 -0.10563516617 0.0064556784928 0 -0.10510268807 0.0070454971865 0 
-0.10446846485 0.0076481257565 0 -0.10374387354 0.0083213904873 0 -0.10286824405 0.0089952237904 0 
-0.1018717289 0.009764848277 0 -0.10064449161 0.010509442538 0 -0.099254392087 0.011382258497 0 
-0.097503498197 0.012183091603 0 -0.095530182123 0.013149031438 0 -0.092986404896 0.013962890022 0 
-0.09014069289 0.01497104764 0 -0.086441129446 0.015688886866 0 -0.082516036928 0.016574455425 0 
-0.078160837293 0.016839941964 0 -0.077024362981 0.016816714779 0 -0.087705485523 0.014384085312 0 
-0.12987527251 0.0085355779156 0 -0.2103869617 -0.0014399419306 0 -0.30395427346 -0.008240615949 0 
-0.38574826717 -0.01031646505 0 -0.45119559765 -0.0097700404003 0 -0.49762478471 -0.0074584069662 0 
-0.5256793499 -0.0043703201227 0 -0.53681510687 -0.0016936226748 0 -0.1068866998 0.00022537552286 0 
-0.10772369802 0.00060070579639 0 -0.10814651102 0.0010074984748 0 -0.10830880702 0.0013504128437 0 
-0.10833183676 0.0017125029117 0 -0.10828182101 0.0020513921045 0 -0.10819202662 0.0024122765753 0 
-0.1080724895 0.0027715463657 0 -0.10792692751 0.0031536896713 0 -0.10775222629 0.0035441948567 0 
-0.10754710436 0.0039601461031 0 -0.10730482638 0.0043900846504 0 -0.10702373087 0.004851274658 0 
-0.10669267923 0.0053295954131 0 -0.10631113499 0.0058486717753 0 -0.10585986078 0.0063851228915 0 
-0.10534195602 0.0069764535874 0 -0.10472310334 0.0075806016102 0 -0.1040154621 0.0082599278539 0 
-0.10315665603 0.0089390715584 0 -0.10217889398 0.0097217177972 0 -0.10096790642 0.01047681924 0 
-0.099596649408 0.011372846551 0 -0.097856737673 0.012190840207 0 -0.095898218453 0.013193816878 0 
-0.093349926174 0.014032516629 0 -0.090504050255 0.015094050206 0 -0.08675865829 0.015844454989 0 
-0.082772992551 0.016798932105 0 -0.07820431143 0.017109464854 0 -0.076581850648 0.017186950892 0 
-0.08605004102 0.014880245551 0 -0.12674304843 0.0091595370322 0 -0.20694452524 -0.0010396287544 0 
-0.30219101906 -0.008140463382 0 -0.3854059279 -0.01026295498 0 -0.45179688931 -0.0097098825499 0 
-0.49867141247 -0.0073554315604 0 -0.52684801817 -0.004287536256 0 -0.53799724579 -0.0016604569973 0 
-0.10704821348 0.00022307274048 0 -0.10787817091 0.00059335929109 0 -0.10829181224 0.0009936549468 0 
-0.10844754428 0.0013297937112 0 -0.10846820474 0.0016851080582 0 -0.10841917247 0.0020176656544 0 
-0.10833267868 0.0023725370411 0 -0.10821790993 0.0027260994539 0 -0.1080782637 0.0031028410885 0 
-0.10791044682 0.0034881646279 0 -0.10771320015 0.0038994038478 0 -0.10747979581 0.0043248636648 0 
-0.10720867664 0.0047824047506 0 -0.1068887338 0.0052573326975 0 -0.10651955009 0.0057744951919 0 
-0.10608182847 0.0063092350028 0 -0.10557890683 0.0069014811888 0 -0.10497602075 0.007506466005 0 
-0.10428603739 0.0081912521273 0 -0.1034450233 0.0088749649003 0 -0.1024871394 0.0096701839939 0 
-0.10129383206 0.010435077362 0 -0.099943123758 0.011354335584 0 -0.098216094077 0.012188968249 0 
-0.0962748155 0.013230010867 0 -0.093724042177 0.014093503356 0 -0.090881422162 0.015211116523 0 
-0.087091654539 0.015994872898 0 -0.083051502705 0.017022557557 0 -0.07827437669 0.017379490659 0 
-0.076191797853 0.017559159547 0 -0.084462702274 0.015379910357 0 -0.12363554537 0.009796381928 0 
-0.20343507826 -0.00061043648748 0 -0.30038312078 -0.0080235088244 0 -0.38505771756 -0.01019137539 0 
-0.45240226388 -0.0096263801679 0 -0.49970838428 -0.007228972856 0 -0.52798706293 -0.004188363906 0 
-0.53913927078 -0.0016217423836 0 -0.10720589757 0.00022069955594 0 -0.10802850127 0.00058574095601 0 
-0.10843275487 0.00097927171737 0 -0.1085819304 0.001308376668 0 -0.10860036314 0.0016566736158 0 
-0.1085524261 0.0019826651551 0 -0.10846932977 0.0023312710691 0 -0.10835938901 0.0026788536925 0 
-0.10822568834 0.0030498891138 0 -0.10806479305 0.0034296989907 0 -0.1078754589 0.003835854819 0 
-0.10765102506 0.0042564277537 0 -0.10738997906 0.0047098672949 0 -0.10708131641 0.0051808999851 0 
-0.10672470927 0.0056956033222 0 -0.10630084574 0.006228022743 0 -0.105813317 0.0068205553107 0 
-0.10522697121 0.0074256584048 0 -0.10455533117 0.0081152478233 0 -0.10373305529 0.0088027277961 0 
-0.10279615223 0.0096099888906 0 -0.10162200034 0.010383863933 0 -0.10029356182 0.011326279491 0 
-0.098581418395 0.012176891789 0 -0.096659936011 0.013256981038 0 -0.09410892427 0.014145034365 0 
-0.091273166239 0.015321554616 0 -0.087440647185 0.016139244661 0 -0.083352260292 0.017244962975 0 
-0.078370884061 0.017649492249 0 -0.07585375011 0.017933679745 0 -0.082943923771 0.015882996842 0 
-0.12055791914 0.010444550775 0 -0.1998616457 -0.00015039964637 0 -0.29852983356 -0.0078878793865 0 
-0.38470524549 -0.010099330917 0 -0.45301258564 -0.0095163444057 0 -0.50073421001 -0.0070761139505 0 
-0.52909320593 -0.0040709055029 0 -0.54023724794 -0.0015768663725 0 -0.10735975206 0.00021826438024 0 
-0.10817468911 0.00057786185062 0 -0.10856933147 0.00096436409513 0 -0.10871196538 0.0012861831347 0 
-0.1087282896 0.0016272291541 0 -0.10868158191 0.0019464285579 0 -0.10860195756 0.0022885226645 0 
-0.10849687457 0.0026298598386 0 -0.10836914182 0.0029948896263 0 -0.10821519047 0.0033688577823 0 
-0.10803379864 0.0037695611827 0 -0.10781838745 0.0041848397814 0 -0.10756750405 0.0046337200329 0 
-0.10727026314 0.0051003503613 0 -0.10692641884 0.0056120343506 0 -0.10651672632 0.0061415061355 0 
-0.10604494065 0.0067336661741 0 -0.10547567904 0.0073381331749 0 -0.10482303798 0.0080318162218 0 
-0.10402043909 0.0087221981958 0 -0.10310561955 0.0095408875495 0 -0.10195209831 0.010322834365 0 
-0.10064767301 0.01128823217 0 -0.098952531815 0.012154019438 0 -0.097053475678 0.013274063356 0 
-0.09450469166 0.014186253771 0 -0.091679610312 0.015424621291 0 -0.08780618012 0.016276588663 0 
-0.08367600292 0.017465747893 0 -0.078493833542 0.017918871716 0 -0.075567357242 0.01831095852 0 
-0.081493720412 0.016389537603 0 -0.11751550436 0.011102287099 0 -0.19622796774 0.00034237717045 0 
-0.29663047194 -0.007731589023 0 -0.38435032964 -0.0099841039628 0 -0.45362871885 -0.0093762343749 0 
-0.50174731016 -0.0068936203606 0 -0.53016281128 -0.0039330748841 0 -0.54128694534 -0.0015251521254 0 
-0.10750979185 0.00021577630832 0 -0.10831671953 0.00056973332539 0 -0.10870152712 0.00094894797076 0 
-0.10883763433 0.0012632348808 0 -0.10885199159 0.0015968058724 0 -0.10880662501 0.0019089950947 0 
-0.10873053223 0.0022443388589 0 -0.10863034427 0.002579171909 0 -0.10850858688 0.0029379026964 0 
-0.10836158693 0.0033057066612 0 -0.10818815231 0.0037005911581 0 -0.10798180103 0.0041101700626 0 
-0.10774113983 0.0045540314168 0 -0.10745543987 0.0050157462247 0 -0.10712451488 0.0055238385685 0 
-0.10672924668 0.0060497210361 0 -0.10627353936 0.0066408189014 0 -0.10572189093 0.0072438628413 0 
-0.1050888449 0.0079408735037 0 -0.10430684686 0.0086332326755 0 -0.10341517627 0.0094626480713 0 
-0.10228379816 0.010251656175 0 -0.10100513697 0.011239747517 0 -0.099329210818 0.012119752355 0 
-0.09745529294 0.01328057237 0 -0.094911441207 0.014216261916 0 -0.092101059854 0.015519517474 0 
-0.088188834488 0.016405845061 0 -0.084023550153 0.017684469 0 -0.078643351793 0.018186936155 0 
-0.075332447886 0.018691577017 0 -0.080111607909 0.016899641603 0 -0.1145137772 0.011767744087 0 
-0.19253847003 0.0008696684381 0 -0.29468455911 -0.0075525790453 0 -0.38399508595 -0.0098425876349 0 
-0.45425158739 -0.0092021264136 0 -0.50274574757 -0.0066779144108 0 -0.53119188547 -0.0037725844886 0 
-0.54228371382 -0.0014658540022 0 -0.1076560244 0.0002132452064 0 -0.10845457762 0.00056136678904 0 
-0.10882931948 0.00093303906033 0 -0.10895894468 0.0012395548401 0 -0.10897146165 0.001565435552 0 
-0.10892754793 0.0018704060931 0 -0.10885504633 0.002198768314 0 -0.10875976086 0.0025268467143 0 
-0.10864397138 0.0028789914213 0 -0.10850392282 0.0032403152436 0 -0.10833843797 0.0036290192511 0 
-0.1081411764 0.0040324958973 0 -0.1079107672 0.0044708768837 0 -0.10763670504 0.0049271616153 0 
-0.10731881112 0.00543107884 0 -0.10693821311 0.0059527158737 0 -0.10649886727 0.0065420349129 0 
-0.10596530885 0.0071428380907 0 -0.10535243154 0.0078423544765 0 -0.10459195077 0.0085357064381 0 
-0.10372444987 0.0093750553206 0 -0.1026167497 0.010170013644 0 -0.10136558115 0.011180382222 0 
-0.099711202085 0.012073488906 0 -0.097865186632 0.013275796548 0 -0.095329232514 0.014234120958 0 
-0.092537745833 0.015605379827 0 -0.088589206338 0.016525855288 0 -0.084395743906 0.017900634557 0 
-0.078819729388 0.018452890217 0 -0.075149022043 0.019076274708 0 -0.078796625137 0.017413474619 0 
-0.11155823618 0.012439150363 0 -0.18879826367 0.0014330470003 0 -0.29269182682 -0.0073487646878 0 
-0.38364204764 -0.00967120938 0 -0.45488220453 -0.008989690803 0 -0.50372737646 -0.0064250514843 0 
-0.53217601776 -0.0035869297571 0 -0.54322242737 -0.0013981525553 0 -0.10779847205 0.00021068166825 0 
-0.10858826339 0.00055277359206 0 -0.10895272344 0.00091665319633 0 -0.10907588154 0.0012151659466 0 
-0.10908671468 0.0015331511386 0 -0.10904435068 0.0018307038117 0 -0.10897549242 0.0021518622525 0 
-0.10888511688 0.0024729438592 0 -0.10877527297 0.002818223089 0 -0.10864214599 0.0031727582682 0 
-0.10848459601 0.0035549250897 0 -0.10829640925 0.0039519011043 0 -0.10807627439 0.0043843416497 0 
-0.10781390965 0.0048346798867 0 -0.1075091511 0.0053338287398 0 -0.107143417 0.0058505544439 0 
-0.10672067106 0.0064373505302 0 -0.10620566458 0.0070350663736 0 -0.10561347753 0.0077362144366 0 
-0.10487537831 0.0084295179695 0 -0.10403303057 0.0092779118568 0 -0.10295055062 0.010077607818 0 
-0.10172858834 0.011109700426 0 -0.10009819269 0.012014628388 0 -0.098282888532 0.013259001076 0 
-0.095758080482 0.014238850214 0 -0.092989884317 0.015681277961 0 -0.089007936418 0.016635367647 0 
-0.084793500602 0.018113680184 0 -0.079023465514 0.018715798855 0 -0.075017288327 0.019465982914 0 
-0.077547311783 0.017931215465 0 -0.10865437239 0.013115048409 0 -0.18501317501 0.0020337619353 0 
-0.29065239429 -0.007118106354 0 -0.38329407573 -0.0094658369198 0 -0.45552149415 -0.0087341628969 0 
-0.50468975306 -0.0061306958087 0 -0.53311032057 -0.0033733739983 0 -0.54409748316 -0.0013211498735 0 
-0.10793715715 0.00020809716079 0 -0.10871778429 0.00054396508494 0 -0.10907172412 0.00089980574558 0 
-0.10918847471 0.0011900918325 0 -0.10919775069 0.0014999860432 0 -0.10915703326 0.0017899322556 0 
-0.10909186304 0.0021036732942 0 -0.10900638252 0.0024175255094 0 -0.10890246183 0.0027556680143 0 
-0.10877621919 0.0031031146646 0 -0.10862655938 0.0034783934243 0 -0.10844743252 0.0038684776518 0 
-0.10823755711 0.0042945183814 0 -0.10798692703 0.0047383946367 0 -0.10769535601 0.0052321753465 0 
-0.10734464973 0.0057433145121 0 -0.1069387272 0.0063268202357 0 -0.10644266754 0.0069205770269 0 
-0.1058716476 0.0076224277727 0 -0.10515676439 0.0083145862445 0 -0.10434049368 0.0091710397974 0 
-0.10328477621 0.0099741593003 0 -0.10209369659 0.011027275585 0 -0.10048982501 0.011942574754 0 
-0.098708070815 0.013229427859 0 -0.096197962761 0.014229436405 0 -0.093457587063 0.015746207908 0 
-0.089445665479 0.016733020544 0 -0.085217736661 0.01832295768 0 -0.079255282879 0.018974581733 0 
-0.074937686324 0.019861841574 0 -0.07636179775 0.018453022465 0 -0.1058075875 0.013794667087 0 
-0.18118953705 0.0026725532953 0 -0.28856688738 -0.0068587036803 0 -0.38295459747 -0.009221653454 0 
-0.45617038012 -0.0084303142503 0 -0.50563013554 -0.0057901032269 0 -0.53398942947 -0.0031289337203 0 
-0.54490292072 -0.0012338642264 0 -0.10807211697 0.00020550390764 0 -0.1088431254 0.00053495226894 0 
-0.1091863215 0.00088251184206 0 -0.10929671675 0.0011643560138 0 -0.10930459946 0.0014659743756 0 
-0.10926561803 0.0017481360119 0 -0.10920415819 0.0020542554557 0 -0.10912355036 0.0023606556933 0 
-0.10902550817 0.0026913993061 0 -0.10890609771 0.0030314666219 0 -0.10876427591 0.003399514826 0 
-0.1085941717 0.0037823221646 0 -0.10839451104 0.0042015076615 0 -0.10815562308 0.0046384097077 0 
-0.10787727684 0.0051262155175 0 -0.10754172504 0.0056310878135 0 -0.10715276748 0.006210513413 0 
-0.10667603463 0.0067994180135 0 -0.10612658411 0.0075009902939 0 -0.10543572903 0.0081908591092 0 
-0.10464639962 0.0090542864054 0 -0.103618972 0.0098594175652 0 -0.10246039927 0.010932693258 0 
-0.10088568181 0.011856744066 0 -0.099140331149 0.013186301105 0 -0.096648775041 0.014204830863 0 
-0.093940913677 0.015799084678 0 -0.089903071523 0.016817344353 0 -0.08566942066 0.01852770336 0 
-0.07951618731 0.019227974117 0 -0.074910901487 0.020265208557 0 -0.075237952173 0.018978990614 0 
-0.10302301496 0.01447846368 0 -0.17733408511 0.0033493891824 0 -0.28643649817 -0.0065689254552 0 
-0.38262760639 -0.0089330039918 0 -0.45682969689 -0.0080724228173 0 -0.50654536486 -0.0053981067613 0 
-0.53480756283 -0.0028503609356 0 -0.54563206434 -0.0011352230795 0 -0.1082033664 0.00020291499095 0 
-0.10896430165 0.00052574585425 0 -0.10929653794 0.00086478574667 0 -0.10940063745 0.0011379823554 0 
-0.10940726846 0.0014311503619 0 -0.10937011242 0.0017053609481 0 -0.10931237787 0.0020036646165 0 
-0.10923662782 0.0023024007678 0 -0.10914439708 0.0026254935656 0 -0.1090317592 0.0029579005204 0 
-0.10889769346 0.0033183835912 0 -0.1087365523 0.0036935377866 0 -0.10854704678 0.0041054170579 0 
-0.10831988603 0.0045348368585 0 -0.10805474222 0.0050160600804 0 -0.10773444176 0.0055139809847 0 
-0.10736256838 0.0060885171406 0 -0.10690546781 0.0066716573201 0 -0.10637794435 0.0073719210923 0 
-0.10571186244 0.0080583067611 0 -0.10495027155 0.0089275203645 0 -0.10395264626 0.0097331581637 0 
-0.10282815993 0.010825557634 0 -0.10128530115 0.01175656449 0 -0.099579192698 0.013128827326 0 
-0.097110368311 0.014163956046 0 -0.094439849257 0.015838734806 0 -0.090380832553 0.016886750236 0 
-0.086149528623 0.018727011979 0 -0.079807512462 0.019474517554 0 -0.07493789494 0.020677641034 0 
-0.074173599482 0.019509119913 0 -0.1003054902 0.015168844722 0 -0.17345409095 0.0040631401353 0 
-0.28426331282 -0.0062475516461 0 -0.38231781125 -0.0085932360962 0 -0.45750012994 -0.0076542468742 0 
-0.50743204355 -0.0049491073005 0 -0.53555828333 -0.0025341277942 0 -0.54627770185 -0.0010240561096 0 
-0.10833095759 0.00020034432237 0 -0.10908130556 0.00051635608543 0 -0.10940237343 0.00084664107999 0 
-0.10950025916 0.001110994257 0 -0.10950578749 0.0013955485774 0 -0.10947053879 0.0016616532812 0 
-0.10941654444 0.0019519570051 0 -0.10934559256 0.0022428287193 0 -0.10925912112 0.0025580287911 0 
-0.10915317386 0.0028825059999 0 -0.10902677476 0.0032350991387 0 -0.10887450725 0.0036022334825 0 
-0.10869507492 0.0040063620545 0 -0.10847958922 0.004427798558 0 -0.10822761804 0.00490182871 0 
-0.10792260617 0.0053921141662 0 -0.10756788403 0.0059609352611 0 -0.10713067651 0.0065373838879 0 
-0.10662537813 0.007235261146 0 -0.10598475486 0.0079169301316 0 -0.10525163263 0.0087906410918 0 
-0.10428529233 0.0095951864496 0 -0.10319637507 0.010705492459 0 -0.10168815404 0.011641490273 0 
-0.10002408177 0.01305620186 0 -0.097582511604 0.014105712995 0 -0.094954252243 0.015863895416 0 
-0.090879626572 0.016939532012 0 -0.086659029126 0.018919795752 0 -0.080130942166 0.019712518901 0 
-0.075019918382 0.021100830287 0 -0.07316686213 0.02004323341 0 -0.097659304738 0.01587099582 0 
-0.16955514252 0.0048110475764 0 -0.28205189109 -0.0058938949369 0 -0.38203087449 -0.0081944586709 0 
-0.45818206668 -0.0071689914912 0 -0.50828623772 -0.0044370773248 0 -0.53623455763 -0.0021764077246 0 
-0.54683214426 -0.00089908286463 0 -0.1084549278 0.00019780658477 0 -0.10919415206 0.00050679250853 0 
-0.10950384289 0.00082809012383 0 -0.10959559679 0.001083415118 0 -0.10960018635 0.0013592032483 0 
-0.10956691206 0.0016170600429 0 -0.10951666534 0.0018991903635 0 -0.10945047438 0.0021820093971 0 
-0.10936967283 0.0024890860077 0 -0.10927031934 0.0028053754941 0 -0.10915149003 0.0031497641467 0 
-0.1090079844 0.0035085233394 0 -0.10883852094 0.003904464189 0 -0.10863462836 0.0043174247257 0 
-0.10839574784 0.0047836536542 0 -0.10810603201 0.0052656214684 0 -0.10776848346 0.0058278883807 0 
-0.10735138506 0.00639670901 0 -0.10686852783 0.0070910775103 0 -0.10625400394 0.0077667585574 0 
-0.10554996878 0.008643575944 0 -0.10461635888 0.0094453478232 0 -0.10356440395 0.010572146624 0 
-0.10209365189 0.011510998011 0 -0.10047437251 0.012967608869 0 -0.098064884543 0.014028984122 0 
-0.095483884215 0.015873208642 0 -0.09140009433 0.016973856837 0 -0.087198846042 0.019104739651 0 
-0.080488532782 0.01994002983 0 -0.075158506632 0.021536495537 0 -0.072216749191 0.020580964163 0 
-0.095087110996 0.016595317051 0 -0.16563656926 0.0055871852674 0 -0.27981033921 -0.0055084605701 0 
-0.38177379966 -0.0077269016765 0 -0.45887538791 -0.0066092372872 0 -0.50910371542 -0.0038555862848 0 
-0.53682887554 -0.0017730593681 0 -0.54728680849 -0.00075889658183 0 -0.10857532173 0.00019531720318 0 
-0.10930284113 0.00049706391292 0 -0.10960096121 0.00080914387945 0 -0.10968668759 0.0010552681051 0 
-0.10969050974 0.001322148717 0 -0.1096592769 0.0015716282651 0 -0.10961276293 0.0018454231322 0 
-0.10955126584 0.0021200131159 0 -0.10947605222 0.0024187474046 0 -0.10938318074 0.0027266039979 0 
-0.10927179456 0.0030624852516 0 -0.1091369465 0.0034125256352 0 -0.10897731036 0.003799851751 0 
-0.10878490657 0.0042038536631 0 -0.10855899751 0.0046616764739 0 -0.10828455538 0.0051346509717 0 
-0.10796413571 0.0056895134039 0 -0.10756729543 0.0062497630715 0 -0.10710702837 0.0069394595921 0 
-0.10651917756 0.0076078521088 0 -0.1058447659 0.0084862839431 0 -0.10494527221 0.009283522144 0 
-0.10393156856 0.010425199755 0 -0.10250115395 0.011364604346 0 -0.10092931986 0.012862234376 0 
-0.098557077348 0.013932646252 0 -0.096028372645 0.015865212306 0 -0.091942839324 0.016987768933 0 
-0.087769888341 0.019280262291 0 -0.080882772803 0.02015481703 0 -0.075355574489 0.021986164153 0 
-0.071324571967 0.021122086793 0 -0.092590913177 0.017361601815 0 -0.1617218107 0.0063808816485 0 
-0.27753382921 -0.0050939484499 0 -0.38155424595 -0.0071784318425 0 -0.45957934856 -0.0059668873437 0 
-0.50987952948 -0.0031978567131 0 -0.53733301163 -0.0013196083019 0 -0.54763269424 -0.00060194026446 0 
-0.10869219154 0.00019289219927 0 -0.10940738022 0.00048717809841 0 -0.10969375819 0.0007898118929 0 
-0.10977356881 0.00102657557 0 -0.10977678001 0.0012844186276 0 -0.10974765569 0.0015254055616 0 
-0.10970486701 0.0017907138681 0 -0.10964799672 0.0020569118205 0 -0.10957825929 0.0023470974993 0 
-0.1094917655 0.0026462886017 0 -0.10938768089 0.0029733721167 0 -0.10926133394 0.0033143630717 0 
-0.10911137611 0.0036926583853 0 -0.108930327 0.0040872315876 0 -0.10871724784 0.0045360489748 0 
-0.10845799744 0.0049993623979 0 -0.10815461725 0.0055459635332 0 -0.10777813941 0.0060966988094 0 
-0.10734054446 0.0067805228755 0 -0.10677984357 0.0074403029867 0 -0.10613550246 0.0083187585697 0 
-0.10527142882 0.0091096339747 0 -0.10429713875 0.010264364071 0 -0.10290994495 0.011201864108 0 
-0.10138810426 0.0127392672 0 -0.099058575928 0.013815577142 0 -0.096587203443 0.015838354826 0 
-0.092508383095 0.016979184002 0 -0.088372938335 0.019444461912 0 -0.08131647855 0.020354300737 0 
-0.075613446534 0.022450663149 0 -0.07049421221 0.021665994078 0 -0.090173155069 0.018183922395 0 
-0.1577834487 0.007193564903 0 -0.27525094151 -0.0046544959769 0 -0.38138085604 -0.0065379310399 0 
-0.46029266715 -0.0052333073691 0 -0.51060843468 -0.0024568319786 0 -0.5377381444 -0.00081122969277 0 
-0.54785984755 -0.00042648377712 0 -0.10880558193 0.00019054811855 0 -0.1095077768 0.00047714172979 0 
-0.10978225619 0.00077010149835 0 -0.1098562777 0.00099735939875 0 -0.10985905677 0.0012460462749 0 
-0.10983208567 0.0014784390805 0 -0.10979299992 0.0017351219431 0 -0.10974068195 0.0019927781541 0 
-0.10967631638 0.0022742215078 0 -0.10959605873 0.002564528957 0 -0.10949912667 0.0028825371992 0 
-0.10938113183 0.0032141625416 0 -0.10924065858 0.0035830228589 0 -0.1090708077 0.0039677112363 0 
-0.10887037218 0.0044069322757 0 -0.1086261943 0.0048599285074 0 -0.10833972692 0.005397408735 0 
-0.10798364133 0.0059376880527 0 -0.10756871849 0.0066144079901 0 -0.1070355773 0.0072642355226 0 
-0.10642163455 0.0081410296261 0 -0.10559421033 0.0089236525819 0 -0.10466035455 0.010089394636 0 
-0.10331925005 0.011022383347 0 -0.10184979439 0.012597909197 0 -0.099568732083 0.013676671311 0 
-0.097159691155 0.01579098776 0 -0.093097142875 0.016945905983 0 -0.089008674026 0.0195950903 0 
-0.081792712212 0.020535523072 0 -0.07593473047 0.02292990312 0 -0.069730162621 0.022211184725 0 
-0.087838426232 0.019063988701 0 -0.15382178128 0.0080303121358 0 -0.27297285199 -0.0041866321117 0 
-0.38126298785 -0.0057963826694 0 -0.46101376414 -0.0043992171995 0 -0.51128429174 -0.0016251873458 0 
-0.53803509474 -0.00024275592295 0 -0.54795771837 -0.00023059158411 0 -0.10891555995 0.00018830169574 0 
-0.1096040383 0.00046696001664 0 -0.1098664701 0.00075001816731 0 -0.10993486643 0.00096764054615 0 
-0.10993737727 0.0012070642551 0 -0.10991261899 0.0014307760866 0 -0.10987719893 0.0016787067289 0 
-0.10982934386 0.0019276854582 0 -0.1097702384 0.0022002060432 0 -0.10969607532 0.0024814256467 0 
-0.10960612446 0.0027900952846 0 -0.1094963029 0.0031120534986 0 -0.10936512798 0.0034710885957 0 
-0.1092062667 0.0038454511669 0 -0.10901827365 0.004274496343 0 -0.10878899693 0.0047165337019 0 
-0.10851925611 0.0052440324798 0 -0.1081835255 0.0057729240507 0 -0.10779120773 0.0064412802458 0 
-0.10728593916 0.0070798066445 0 -0.1067026183 0.0079531632364 0 -0.10591297597 0.0087255965918 0 
-0.10502041876 0.009900088422 0 -0.10372822732 0.010825825855 0 -0.10231338441 0.012437384576 0 
-0.10008678585 0.01351485122 0 -0.097744971514 0.01572137326 0 -0.093709379435 0.016885628924 0 
-0.089677602053 0.019729536027 0 -0.082314714789 0.020695129409 0 -0.076322220266 0.02342305705 0 
-0.069036707282 0.022755956277 0 -0.08559153229 0.020003348589 0 -0.14983050525 0.0088957576081 0 
-0.27071455121 -0.0036850448232 0 -0.38121065497 -0.0049442737363 0 -0.46174055338 -0.0034544488881 0 
-0.51190072298 -0.00069537345553 0 -0.53821444511 0.00039129162906 0 -0.54791456461 -1.1958890354e-05 0 
-0.10902217776 0.00018616963644 0 -0.10969616473 0.00045663659694 0 -0.10994645208 0.00072956469376 0 
-0.11000937223 0.00093743915204 0 -0.11001180112 0.0011675044661 0 -0.10998930037 0.0013824634952 0 
-0.10995750874 0.0016215274809 0 -0.10991402715 0.0018617069582 0 -0.10986004025 0.0021251386497 0 
-0.10979182273 0.0023970806506 0 -0.10970867425 0.0026961625554 0 -0.10960682482 0.0030081686564 0 
-0.1094847247 0.0033570032101 0 -0.10933664441 0.0037206164561 0 -0.10916084051 0.0041389190592 0 
-0.10894627124 0.0045693721622 0 -0.10869301856 0.0050860340707 0 -0.10837754607 0.0056026196107 0 
-0.1080076769 0.0062613314949 0 -0.10753051192 0.0068872072734 0 -0.1069779098 0.0077552655712 0 
-0.10622704774 0.0085155358538 0 -0.10537650436 0.0096962926909 0 -0.10413596779 0.010611920618 0 
-0.1027777642 0.01225695014 0 -0.10061182827 0.013329084031 0 -0.098342001438 0.015627700835 0 
-0.094345159829 0.016795957461 0 -0.090379998088 0.019844805822 0 -0.082885801792 0.020829351619 0 
-0.076778963208 0.023928591982 0 -0.068418465555 0.023298341781 0 -0.083438396454 0.02100520581 0 
-0.14580439031 0.0097944354638 0 -0.26849195361 -0.0031437843572 0 -0.38123416901 -0.0039711119607 0 
-0.46247011423 -0.0023880472872 0 -0.51245331764 0.00034024036722 0 -0.53826391697 0.0010969818104 0 
-0.5477180481 0.00023241067538 0 -0.10912550241 0.00018416818057 0 -0.10978417099 0.0004461731296 0 
-0.11002221704 0.00070874107769 0 -0.11007985473 0.00090677436674 0 -0.11008238792 0.0011273976415 0 
-0.1100621745 0.0013335478725 0 -0.11003397405 0.001563643571 0 -0.10999476165 0.0017949164612 0 
-0.10994575918 0.0020491066389 0 -0.10988331586 0.0023115968797 0 -0.10980677605 0.0026008572895 0 
-0.10971269757 0.0029026428238 0 -0.10959943384 0.0032409171108 0 -0.10946188867 0.0035933768377 0 
-0.1092979908 0.0040003843606 0 -0.10909788311 0.0044186497107 0 -0.10886082798 0.0049236267805 0 
-0.10856544971 0.0054270057008 0 -0.10821780562 0.006074776873 0 -0.10776886344 0.0066866609268 0 
-0.10724695772 0.0075474814512 0 -0.10653576255 0.0082935942337 0 -0.10572775453 0.0094779096544 0 
-0.10454151034 0.010380472057 0 -0.10324171931 0.012055906467 0 -0.10114280134 0.013118400238 0 
-0.098949506879 0.015508098528 0 -0.095004335046 0.016674421728 0 -0.091115854681 0.019937528297 0 
-0.083509370685 0.020933981985 0 -0.077308237553 0.024444215 0 -0.0678807199 0.023836057633 0 
-0.081385865808 0.022074626759 0 -0.14173877239 0.01073158998 0 -0.26632159948 -0.0025561603252 0 
-0.3813431859 -0.0028655061033 0 -0.4632011354 -0.00118919136 0 -0.51293236017 0.001489538583 0 
-0.53817468882 0.0018821643898 0 -0.54735451937 0.00050552433822 0 -0.10922558606 0.00018231250579 0 
-0.10986804962 0.00043556903256 0 -0.11009381711 0.0006875442923 0 -0.11014637351 0.00087566394359 0 
-0.11014918238 0.0010867737001 0 -0.11013130099 0.0012840752024 0 -0.11010663956 0.0015051141381 0 
-0.11007159203 0.0017273876583 0 -0.11002742499 0.0019721984863 0 -0.10997059196 0.0022250774782 0 
-0.1099004522 0.0025042986963 0 -0.1098139137 0.0027956124395 0 -0.10970922559 0.0031229844317 0 
-0.10958193988 0.003463906236 0 -0.10942965746 0.0038590840995 0 -0.10924371332 0.0042645805515 0 
-0.10902252793 0.0047570369206 0 -0.10874701291 0.0052463319153 0 -0.10842128843 0.00588185573 0 
-0.10800058395 0.0064784246497 0 -0.10750923306 0.0073299980722 0 -0.10683842748 0.0080599505454 0 
-0.10607328266 0.0092449001968 0 -0.10494383425 0.010131367482 0 -0.10370396823 0.011833610013 0 
-0.10167849809 0.012881913222 0 -0.09956600517 0.01536064595 0 -0.095686487854 0.016518510878 0 
-0.091884858906 0.020003931597 0 -0.08418879658 0.021004352719 0 -0.07791352272 0.024966781959 0 
-0.067429840565 0.024366358295 0 -0.079442083836 0.023218430579 0 -0.13762901723 0.011714167893 0 
-0.26421895623 -0.0019140894292 0 -0.38154777884 -0.0016164469998 0 -0.46393769979 0.00015247965348 0 
-0.5133254528 0.002762417309 0 -0.5379357338 0.0027559211012 0 -0.54680877924 0.00080980506027 0 
-0.10932250321 0.00018061605806 0 -0.10994780809 0.00042482113349 0 -0.11016128212 0.00066596799297 0 
-0.11020899564 0.00084412452998 0 -0.11021226645 0.001045661862 0 -0.11019674689 0.0012340907706 0 
-0.11017554998 0.0014459980885 0 -0.11014456302 0.0016591941239 0 -0.11010507494 0.0018945019692 0 
-0.11005366594 0.0021376262885 0 -0.1099897176 0.002406605985 0 -0.10991047323 0.0026872148737 0 
-0.10981409252 0.0030033604708 0 -0.10969676822 0.003332382068 0 -0.10955575854 0.0037152147852 0 
-0.10938365757 0.0041073863395 0 -0.10917796195 0.004586501047 0 -0.1089220196 0.0050608646125 0 
-0.10861781985 0.0056828316301 0 -0.10822526366 0.0062627876177 0 -0.10776420683 0.007103044074 0 
-0.10713435709 0.0078148432076 0 -0.10641219467 0.0089972903952 0 -0.10534185171 0.0098645826802 0 
-0.10416312516 0.011589482427 0 -0.1022175476 0.012618837878 0 -0.10018978268 0.015183400363 0 
-0.096390888095 0.016325701028 0 -0.092686288059 0.020039856434 0 -0.084927350283 0.021035311744 0 
-0.07859852165 0.025492133573 0 -0.067073613405 0.02488582395 0 -0.077616915107 0.024444971234 0 
-0.13346995413 0.01275321655 0 -0.26219642162 -0.001208040514 0 -0.38186731935 -0.00021689791174 0 
-0.46466395259 0.0016485409578 0 -0.51363295317 0.004173503723 0 -0.53753393888 0.0037264407147 0 
-0.54606473446 0.0011473954655 0 -0.10941631347 0.00017908964946 0 -0.11002344638 0.00041392323328 0 
-0.11022467166 0.00064400193514 0 -0.11026778072 0.0008121713181 0 -0.11027169973 0.0010040898342 0 
-0.11025856435 0.0011836392805 0 -0.11024077982 0.0013863536296 0 -0.11021372676 0.001590408734 0 
-0.11017876118 0.0018161049811 0 -0.11013258249 0.0020493466873 0 -0.11007460207 0.0023078995291 0 
-0.11000239104 0.0025775888935 0 -0.1099140197 0.0028822030872 0 -0.10980635136 0.0031989840791 0 
-0.10967625678 0.0035689780489 0 -0.10951762646 0.0039472971112 0 -0.10932699591 0.0044122692198 0 
-0.10909025371 0.0048708855174 0 -0.1088071391 0.0054779904895 0 -0.10844252259 0.0060400716029 0 
-0.10801135004 0.0068668890744 0 -0.10742284358 0.0075585679151 0 -0.10674360394 0.0087351715192 0 
-0.1057344377 0.0095801930875 0 -0.10461773723 0.011323029175 0 -0.10275840759 0.012328518555 0 
-0.10081887245 0.014974415302 0 -0.097116470337 0.016093503684 0 -0.093518972397 0.020040748641 0 
-0.085728131235 0.021021215245 0 -0.079367011786 0.026014929637 0 -0.066821612418 0.025390014052 0 
-0.075923070312 0.02576409094 0 -0.12925627828 0.013867034577 0 -0.26028072834 -0.00043052036199 0 
-0.38230648637 0.0013366738567 0 -0.46537846327 0.003316908842 0 -0.51384526491 0.0057388292626 0 
-0.53695482016 0.0048004691489 0 -0.54510551691 0.0015203302028 0 -0.10950707644 0.00017774022126 0 
-0.11009495705 0.00040286552394 0 -0.11028401554 0.00062163214898 0 -0.11032280326 0.00077981787035 0 
-0.11032755673 0.00096208479954 0 -0.11031683534 0.00113276497 0 -0.11030238122 0.0013262389693 0 
-0.11027913541 0.0015211042482 0 -0.11024852842 0.0017370948335 0 -0.11020738631 0.0019603418186 0 
-0.11015512794 0.0022082987707 0 -0.11008968949 0.0024668728001 0 -0.11000902206 0.0027596703731 0 
-0.10991066694 0.0030638950411 0 -0.10979110003 0.0034205783159 0 -0.10964554548 0.0037845480256 0 
-0.10946951061 0.0042345989496 0 -0.10925154388 0.0046766907908 0 -0.10898897052 0.0052676382475 0 
-0.10865197331 0.0058106272481 0 -0.1082501784 0.0066218446009 0 -0.10770320892 0.0072914808989 0 
-0.10706659406 0.0084587093443 0 -0.10612042248 0.0092783793807 0 -0.10506628454 0.011033846997 0 
-0.1032993719 0.012010445818 0 -0.10145108402 0.014731770381 0 -0.097861766815 0.015819501132 0 
-0.094381205738 0.020001675934 0 -0.086593911052 0.020955929533 0 -0.080222770572 0.026528410614 0 
-0.066685549915 0.025872904807 0 -0.074376612902 0.027186509222 0 -0.12498321384 0.015073928982 0 
-0.25848433375 0.00042229384417 0 -0.38286697865 0.0030531880911 0 -0.4660910368 0.0051809167489 0 
-0.51395201683 0.007472013589 0 -0.53618252277 0.0059841922484 0 -0.54391348362 0.0019305354217 0 
-0.10959485918 0.00017656940327 0 -0.11016234756 0.00039163403562 0 -0.1103393808 0.00059884029906 0 
-0.11037415266 0.00074707629392 0 -0.11037991196 0.00091967271874 0 -0.11037161946 0.0010815107962 0 
-0.11036041379 0.0012657113839 0 -0.11034085602 0.0014513524948 0 -0.11031442881 0.0016575582558 0 
-0.11027810723 0.0018707136624 0 -0.11023133248 0.0021079229191 0 -0.11017239094 0.0023552048951 0 
-0.11009910703 0.002635920886 0 -0.11000970751 0.0029272979591 0 -0.10990026593 0.0032702242024 0 
-0.10976734012 0.003619379364 0 -0.10960540175 0.004053757526 0 -0.10940570384 0.0044785905629 0 
-0.10916309059 0.0050521017984 0 -0.10885327309 0.0055748349987 0 -0.10848021507 0.0063682626933 0 
-0.10797476768 0.0070139956661 0 -0.10738027096 0.0081681404263 0 -0.1064985916 0.0089594302699 0 
-0.10550718755 0.010721640661 0 -0.10383857042 0.011664286256 0 -0.10208395869 0.014453602023 0 
-0.098624877632 0.015501420945 0 -0.095270708203 0.019917335361 0 -0.087526999414 0.020832862705 0 
-0.081169329584 0.027024185285 0 -0.066679380834 0.026326376945 0 -0.072995938361 0.028722964227 0 
-0.12064631283 0.016379324719 0 -0.25680443645 0.001357211615 0 -0.38357794285 0.004952694755 0 
-0.46679881215 0.0072640776634 0 -0.51394081116 0.0093843694776 0 -0.53520029783 0.0072832908481 0 
-0.54247069359 0.0023797580507 0 -0.1096797213 0.0001755716803 0 -0.11022559553 0.00038020993816 0 
-0.11039081961 0.00057560380083 0 -0.11042190343 0.00071395700797 0 -0.11042884737 0.00087687914493 0 
-0.11042299867 0.0010299196001 0 -0.11041495204 0.0012048281496 0 -0.11039894819 0.0013812247198 0 
-0.11037651449 0.0015775809297 0 -0.11034481227 0.0017805637326 0 -0.11030326784 0.0020068897866 0 
-0.11025053263 0.0022427227814 0 -0.11018430442 0.0025111131836 0 -0.11010348052 0.0027893767692 0 
-0.11000373214 0.0031181252562 0 -0.10988295823 0.0034520360641 0 -0.10973458737 0.0038700182922 0 
-0.10955259949 0.0042769047432 0 -0.10932927579 0.0048317252658 0 -0.10904608667 0.0053331018426 0 
-0.10870100558 0.0061065345071 0 -0.10823685676 0.0067265853286 0 -0.10768377036 0.0078637795523 0 
-0.10686770827 0.0086237536743 0 -0.10593882948 0.010386235081 0 -0.10437396914 0.011289902963 0 
-0.10271484405 0.014138131402 0 -0.099403433502 0.015137188137 0 -0.096184499562 0.019782096148 0 
-0.088529035449 0.020645041019 0 -0.082209676504 0.027492014691 0 -0.066819474101 0.02674000524 0 
-0.071800202131 0.030384177342 0 -0.11624116451 0.017778500915 0 -0.25525912642 0.0023878389038 0 
-0.38445344567 0.0070610959083 0 -0.46749967337 0.0095890453085 0 -0.51379716396 0.011486699805 0 
-0.53399068117 0.0087028499693 0 -0.54075878859 0.0028695138171 0 -0.10976170748 0.00017473203479 0 
-0.11028470844 0.00036856872612 0 -0.11043839157 0.00055189570412 0 -0.11046615243 0.00068046856904 0 
-0.11047444493 0.00083372875815 0 -0.11047105491 0.00097803317476 0 -0.11046606302 0.0011436454952 0 
-0.11045347154 0.0013107912382 0 -0.11043485254 0.0014972476056 0 -0.11040754616 0.0016899919137 0 
-0.11037097871 0.0019053160213 0 -0.11032415181 0.0021295624319 0 -0.11026463658 0.0023854044266 0 
-0.11019199342 0.0026503154077 0 -0.11010149866 0.0029644924216 0 -0.10999237746 0.0032827646937 0 
-0.10985698551 0.0036836613435 0 -0.10969209671 0.0040719634853 0 -0.1094873473 0.0046068686061 0 
-0.10923009366 0.0050858594477 0 -0.10891213268 0.0058370889165 0 -0.10848882794 0.0064297788776 0 
-0.107976228 0.0075460192747 0 -0.10722652823 0.008271872066 0 -0.10635956377 0.010027585551 0 
-0.10490337014 0.010887379758 0 -0.10334084183 0.013783707283 0 -0.1001945734 0.014725007117 0 
-0.097118914127 0.019590036944 0 -0.089600794017 0.020385216922 0 -0.083346009254 0.027919599786 0 
-0.06712474674 0.02710095048 0 -0.07080899924 0.032180543989 0 -0.11176324636 0.01926448755 0 
-0.25386551023 0.0035319454037 0 -0.38551151752 0.0094065619633 0 -0.46818938851 0.012179511599 0 
-0.51350462437 0.013789497316 0 -0.53253519535 0.010247145779 0 -0.53875935078 0.003401017515 0 
-0.10984086245 0.000174023211 0 -0.11033967882 0.00035667908378 0 -0.11048216373 0.00052768463502 0 
-0.11050698906 0.00064661807846 0 -0.11051679403 0.00079024629667 0 -0.11051585525 0.0009258929058 0 
-0.11051382869 0.0010822194163 0 -0.11050450802 0.0012401214335 0 -0.11048951 0.0014166417532 0 
-0.11046637595 0.0015990968095 0 -0.11043452471 0.0018033168744 0 -0.1103932932 0.002015858423 0 
-0.11034014076 0.0022589506116 0 -0.11027526855 0.0025102964137 0 -0.11019357294 0.0028095366433 0 
-0.110095568 0.0031118143816 0 -0.10997255892 0.0034949702676 0 -0.10982408375 0.003864105558 0 
-0.10963712633 0.0043779076077 0 -0.10940502584 0.0048335627653 0 -0.10911320895 0.0055603911169 0 
-0.10873006284 0.0061241607182 0 -0.10825682431 0.0072153280489 0 -0.10757378489 0.0079044336453 0 
-0.10676774383 0.009645790793 0 -0.10542444885 0.010457040742 0 -0.10395887494 0.013388837688 0 
-0.10099488497 0.014263441786 0 -0.098069496453 0.019334999844 0 -0.090741969645 0.020046032965 0 
-0.084579370916 0.028292383999 0 -0.067616716027 0.027393694967 0 -0.070042587817 0.034120768309 0 
-0.10720913112 0.020828524604 0 -0.25264590979 0.0048119504936 0 -0.38677042723 0.01201929152 0 
-0.46886089444 0.015060508624 0 -0.5130443573 0.016302611679 0 -0.53081488609 0.011919345707 0 
-0.53645414114 0.0039750877768 0 -0.10991722345 0.00017340210616 0 -0.11039049923 0.00034450175008 0 
-0.11052220315 0.00050293502863 0 -0.11054452509 0.00061241071671 0 -0.11055597663 0.0007464561495 0 
-0.110557504 0.00087353953859 0 -0.11055831611 0.0010206055595 0 -0.11055212468 0.0011692834087 0 
-0.11054055393 0.0013358452125 0 -0.11052136868 0.0015079751611 0 -0.11049395055 0.0017010051524 0 
-0.11045800894 0.0019017432351 0 -0.11041086912 0.0021319058724 0 -0.11035335064 0.0023695011623 0 
-0.11027996242 0.0026534677017 0 -0.11019252241 0.0029394340236 0 -0.11008127034 0.0033042319119 0 
-0.10994847119 0.0036536753178 0 -0.10977848619 0.0041452278383 0 -0.10957062989 0.0045766858384 0 
-0.10930389166 0.0052769384347 0 -0.10895997286 0.0058103650808 0 -0.1085247919 0.0068722534925 0 
-0.10790822655 0.0075222030282 0 -0.10716173053 0.0092411031947 0 -0.10593473911 0.0099994726479 0 
-0.10456569493 0.012952238321 0 -0.10180038959 0.013751500286 0 -0.099030986428 0.019010664895 0 
-0.091950878501 0.019620213658 0 -0.085909314454 0.028593350202 0 -0.068319372833 0.027599722147 0 
-0.069522023201 0.036209836602 0 -0.10257737339 0.02245910652 0 -0.25162824988 0.0062564341351 0 
-0.38824760914 0.014931820333 0 -0.46950390935 0.01825825125 0 -0.5123950839 0.019034774974 0 
-0.52881014347 0.013721146621 0 -0.53382527828 0.0045920284465 0 -0.10999081284 0.00017280559405 0 
-0.11043716967 0.0003319880343 0 -0.11055859178 0.0004776075657 0 -0.11057885736 0.00057785020908 0 
-0.11059208959 0.00070238334592 0 -0.1105960831 0.00082101358566 0 -0.11059961468 0.00095885881456 0 
-0.11059639603 0.0010983446846 0 -0.11058805138 0.0012549384264 0 -0.11057258397 0.0014167214977 0 
-0.11054933816 0.0015984915663 0 -0.1105183661 0.0017873470206 0 -0.11047686636 0.0020044213161 0 
-0.11042626947 0.0022281087004 0 -0.11036071926 0.0024964944459 0 -0.11028324068 0.0027658727486 0 
-0.11018310487 0.0031117338222 0 -0.11006519198 0.0034410215449 0 -0.10991131514 0.0039092260413 0 
-0.10972667485 0.0043157204054 0 -0.10948386788 0.0049872579984 0 -0.1091780141 0.0054890755564 0 
-0.10877940804 0.0065174167976 0 -0.10822862387 0.0071260686964 0 -0.10753994435 0.008813935332 0 
-0.10643166304 0.0095155406743 0 -0.10515792668 0.012472869828 0 -0.10260653496 0.013188728131 0 
-0.099997334182 0.01861064136 0 -0.093224205077 0.019100833684 0 -0.087333448231 0.028802862391 0 
-0.069258712232 0.027697158977 0 -0.069269143045 0.038446221501 0 -0.09787004441 0.024140626192 0 
-0.25084641576 0.007902149111 0 -0.38995921612 0.018179390579 0 -0.47010475397 0.02179983072 0 
-0.51153260469 0.021993024275 0 -0.52650105953 0.01565237157 0 -0.53085565567 0.0052514951676 0 
-0.11006162316 0.00017214528634 0 -0.11047969759 0.00031907809898 0 -0.11059141159 0.00045165995834 0 
-0.11061011255 0.00054293888388 0 -0.11062522978 0.00065805373015 0 -0.11063167453 0.00076835526852 0 
-0.11063779891 0.00089703366393 0 -0.11063740402 0.0010273711523 0 -0.11063208431 0.001173999859 0 
-0.11062008888 0.0013254284859 0 -0.11060074717 0.0014958839165 0 -0.11057441682 0.0016727967886 0 
-0.11053819209 0.0018766457215 0 -0.11049406976 0.0020862948149 0 -0.11043586582 0.0023388219997 0 
-0.11036775261 0.0025913771242 0 -0.11027805507 0.0029177644756 0 -0.11017419398 0.0032264960464 0 
-0.11003553122 0.0036703050137 0 -0.109872967 0.0040511717089 0 -0.1096528843 0.0046919034794 0 
-0.10938366503 0.0051610176452 0 -0.10902000964 0.0061515122652 0 -0.1085337624 0.0067170318216 0 
-0.10790083557 0.008364870213 0 -0.10691256076 0.009006395936 0 -0.10573215038 0.011949987151 0 
-0.10340819508 0.012575296685 0 -0.10096167773 0.018128575757 0 -0.094556733966 0.018481623381 0 
-0.088846929371 0.028898533434 0 -0.070461839437 0.027660524473 0 -0.069306403399 0.040818206966 0 
-0.093094959855 0.025851711631 0 -0.25034096837 0.0097965952009 0 -0.39191883802 0.021800290793 0 
-0.47064554691 0.025712741539 0 -0.51042973995 0.025182049721 0 -0.52386730909 0.017710512504 0 
-0.52752923965 0.0059523531236 0 -0.11012963951 0.00017130126071 0 -0.11051809043 0.00030569866067 0 
-0.11062075943 0.00042504770681 0 -0.1106384024 0.00050767790526 0 -0.11065550148 0.00061349425232 0 
-0.11066437513 0.00071560504148 0 -0.11067295074 0.00083518429892 0 -0.11067521572 0.0009564277716 0 
-0.11067271978 0.0010931063443 0 -0.11066396534 0.0012341862312 0 -0.11064825207 0.0013932872098 0 
-0.11062622815 0.0015582165215 0 -0.11059492081 0.0017487234436 0 -0.110556826 0.00194423215 0 
-0.11050546169 0.0021806531586 0 -0.11044608057 0.0024161920883 0 -0.11036615819 0.0027226095553 0 
-0.11027546972 0.0030104508623 0 -0.11015107483 0.0034288733732 0 -0.11000936478 0.0037835566327 0 
-0.10981070995 0.0043914509006 0 -0.1095764786 0.0048269559629 0 -0.1092460081 0.0057753012516 0 
-0.10882248729 0.0062962058 0 -0.10824295133 0.0078946622089 0 -0.10737471282 0.0084734857082 0 
-0.10628489405 0.011383181438 0 -0.10419962555 0.011912086047 0 -0.10191644728 0.017558285967 0 
-0.095940984786 0.017757350579 0 -0.090441912413 0.02885517478 0 -0.071955606341 0.027460664511 0 
-0.069656573236 0.043299358338 0 -0.088268645108 0.027563245967 0 -0.25016024709 0.012001214549 0 
-0.39413622022 0.025836139917 0 -0.4711035192 0.030024191365 0 -0.50905615091 0.028603427112 0 
-0.52088880539 0.019890250638 0 -0.52383178473 0.0066925291903 0 -0.11019483209 0.00017011452292 0 
-0.11055240035 0.00029176069074 0 -0.1106467545 0.00039772578748 0 -0.11066388339 0.0004720678553 0 
-0.11068301648 0.00056873407448 0 -0.11069429666 0.00066280335886 0 -0.11070517451 0.00077336438699 0 
-0.11070994288 0.00088557810523 0 -0.11071005464 0.0010123322718 0 -0.11070431024 0.0011430822778 0 
-0.11069194227 0.0012908034259 0 -0.11067390442 0.0014437268255 0 -0.11064713448 0.0016207956942 0 
-0.11061460525 0.0018020896241 0 -0.11056958884 0.0020221860614 0 -0.11051829904 0.0022405583877 0 
-0.11044745147 0.002526552882 0 -0.11036901176 0.0027932377998 0 -0.11025794595 0.0031853411347 0 
-0.11013574898 0.0035133997444 0 -0.10995720327 0.0040864944458 0 -0.10975605249 0.0044876891188 0 
-0.10945691168 0.0053896084428 0 -0.10909371823 0.0058648078702 0 -0.10856497288 0.0074042375199 0 
-0.10781537741 0.0079185552895 0 -0.10681277514 0.010772427544 0 -0.10497459024 0.011200765148 0 
-0.1028534472 0.016893923283 0 -0.097366966307 0.016924252734 0 -0.092107005417 0.028644811362 0 
-0.073764614761 0.027065118775 0 -0.070342034101 0.045843098313 0 -0.083420433104 0.029236067086 0 
-0.25036147237 0.014595294371 0 -0.3966152072 0.030332032591 0 -0.47145023942 0.034760106355 0 
-0.50737828016 0.032254755497 0 -0.5175459981 0.022182947025 0 -0.51975107193 0.007468865253 0 
-0.11025708169 0.00016837773728 0 -0.11058264226 0.00027715603937 0 -0.11066947132 0.0003696505737 0 
-0.11068665981 0.00043610914145 0 -0.11070785671 0.00052380445413 0 -0.11072149873 0.00060999131529 0 
-0.11073452979 0.00071162724635 0 -0.11074163765 0.00081488449359 0 -0.11074414849 0.00093175016809 0 
-0.11074116081 0.0010522017255 0 -0.11073186249 0.0011885309359 0 -0.11071748286 0.0013294443488 0 
-0.1106948778 0.001492998912 0 -0.11066745967 0.0016600312665 0 -0.11062828451 0.0018636137247 0 
-0.1105844304 0.0020647118799 0 -0.11052197218 0.0023298729211 0 -0.1104548201 0.0025752054062 0 
-0.11035612226 0.0029401178472 0 -0.11025200784 0.0032412300352 0 -0.11009221524 0.0037776411045 0 
-0.10992201418 0.0041440413333 0 -0.10965226591 0.0049953130074 0 -0.10934638977 0.0054241479374 0 
-0.10886566341 0.0068946974352 0 -0.10823179781 0.0073436382227 0 -0.10731249303 0.010118125007 0 
-0.10572624207 0.010443855077 0 -0.1037639603 0.016130164266 0 -0.098821826279 0.015980526805 0 
-0.09382674098 0.028236800805 0 -0.075908556581 0.026439085603 0 -0.071383781731 0.048376537859 0 
-0.07859762758 0.030818318948 0 -0.25101217628 0.01768059656 0 -0.39935129881 0.035336568952 0 
-0.47165068984 0.039943795651 0 -0.50535917282 0.036128666252 0 -0.51382017136 0.024576133117 0 
-0.51527774334 0.0082769775763 0 -0.11031608284 0.00016582336684 0 -0.11060869694 0.00026175341918 0 
-0.11068887264 0.00034078248427 0 -0.11070668697 0.00039980295696 0 -0.11072994769 0.00047873999574 0 
-0.11074589938 0.00055721087847 0 -0.11076091975 0.00065002567135 0 -0.11077018827 0.00074440788012 0 
-0.11077488959 0.00085142988246 0 -0.1107744202 0.000961626356 0 -0.1107679233 0.0010865642689 0 
-0.11075686663 0.0012154818978 0 -0.11073806882 0.0013654648792 0 -0.11071529239 0.0015182164498 0 
-0.11068145186 0.0017051239265 0 -0.11064435542 0.001888884115 0 -0.1105896011 0.0021328427829 0 
-0.11053275317 0.0023566985037 0 -0.11044544727 0.0026936102659 0 -0.11035790294 0.0029675783589 0 
-0.1102154851 0.0034655071795 0 -0.11007387191 0.0037968589459 0 -0.10983154923 0.0045933425426 0 
-0.10957938433 0.0049756183289 0 -0.10914377123 0.0063673066907 0 -0.10862107575 0.0067510441877 0 
-0.10778075457 0.0094211399555 0 -0.10644713044 0.0096447691321 0 -0.10463881493 0.015262433328 0 
-0.10028938204 0.014926835895 0 -0.095581002533 0.027598079294 0 -0.078398488462 0.025547202677 0 
-0.072799682617 0.050793722272 0 -0.073871992528 0.03224240616 0 -0.2521918714 0.021386714652 0 
-0.40232846141 0.040901638567 0 -0.47166210413 0.045594092458 0 -0.50295865536 0.04021172598 0 
-0.50969409943 0.027053030208 0 -0.51040571928 0.0091111371294 0 -0.11037237942 0.00016211344337 0 
-0.1106313765 0.00024539534934 0 -0.11070580035 0.00031108953408 0 -0.11072481424 0.00036315241596 0 
-0.11075010151 0.00043357888353 0 -0.11076830328 0.00050450500567 0 -0.11078513414 0.00058861204889 0 
-0.11079639196 0.00067420798587 0 -0.11080306768 0.00077143905219 0 -0.11080488563 0.00087143538985 0 
-0.11080091447 0.00098499469459 0 -0.11079284549 0.0011019482045 0 -0.11077748239 0.0012383203721 0 
-0.11075887829 0.0013767991913 0 -0.11072989553 0.0015468979254 0 -0.11069887877 0.001713299891 0 
-0.11065113544 0.001935728942 0 -0.11060355604 0.002138055861 0 -0.1105266884 0.0024462195579 0 
-0.11045411229 0.0026929741725 0 -0.11032770574 0.0031507120002 0 -0.11021209508 0.0034470038954 0 
-0.10999520123 0.0041846642271 0 -0.10979253799 0.004520682618 0 -0.10939911008 0.0058234906755 0 
-0.10898129642 0.0061433431692 0 -0.10821544379 0.0086828414351 0 -0.10713028163 0.0088078333065 0 
-0.10546962917 0.014287178405 0 -0.10175091773 0.013766836375 0 -0.097345866263 0.026693625376 0 
-0.081233359873 0.024356361479 0 -0.074602566659 0.052948467433 0 -0.069347389042 0.033421520144 0 
-0.25399366021 0.025877056643 0 -0.40551510453 0.047081906348 0 -0.47143274546 0.051722932607 0 
-0.50013381243 0.044483229518 0 -0.50515276194 0.029592122883 0 -0.50513297319 0.009964171797 0 
-0.11042711884 0.00015683000674 0 -0.11065227538 0.00022789552168 0 -0.11072187871 0.00028055123403 0 
-0.11074265838 0.00032616325188 0 -0.1107698828 0.00038836308522 0 -0.11079023778 0.00045191778918 0 
-0.11080870777 0.00052743795095 0 -0.11082177609 0.00060434284387 0 -0.11083022505 0.00069184263702 0 
-0.110834077 0.00078170507913 0 -0.11083236337 0.00088390958263 0 -0.11082694679 0.00098894792609 0 
-0.11081467569 0.0011116876267 0 -0.11079977453 0.0012359288521 0 -0.11077514291 0.0013891115086 0 
-0.11074952781 0.0015381785342 0 -0.11070811749 0.0017387907719 0 -0.11066877842 0.0019196112407 0 
-0.11060138792 0.0021983408369 0 -0.110542126 0.0024179446045 0 -0.11043035984 0.002833876526 0 
-0.11033798009 0.0030953488313 0 -0.11014457792 0.00377027574 0 -0.10998661071 0.0040608663112 0 
-0.10963249952 0.005264823325 0 -0.10931150615 0.0055233412422 0 -0.10861566663 0.0079051377252 0 
-0.10776937753 0.0079382900149 0 -0.10624931753 0.013202198781 0 -0.10318535566 0.012507678941 0 
-0.099094554782 0.025487307459 0 -0.084396921098 0.022839756683 0 -0.076799169183 0.054647490382 0 
-0.065170124173 0.034245986491 0 -0.25652635098 0.031355280429 0 -0.40885928273 0.053933903575 0 
-0.4709008038 0.058332145214 0 -0.4968392849 0.048913903534 0 -0.50018382072 0.032166846097 0 
-0.49946191907 0.010827419348 0 -0.11046817154 0.00014941394329 0 -0.11065993458 0.00020901062817 0 
-0.11072562635 0.00024916493567 0 -0.11074867845 0.00028884675703 0 -0.11077771336 0.00034313951619 0 
-0.1108001098 0.00039949480561 0 -0.11082001776 0.00046655372716 0 -0.11083470285 0.00053486833349 0 
-0.11084470898 0.0006127016386 0 -0.11085035652 0.00069250667002 0 -0.11085063219 0.00078338989988 0 
-0.1108475551 0.0008765787934 0 -0.11083801091 0.00098568003159 0 -0.11082635075 0.001095745014 0 
-0.11080560088 0.0012319285888 0 -0.11078469455 0.0013637272641 0 -0.11074896157 0.0015422728611 0 
-0.11071678996 0.0017016831553 0 -0.11065795273 0.0019503510557 0 -0.11061027646 0.0021430011839 0 
-0.11051186174 0.0025156047195 0 -0.11043974012 0.0027427570894 0 -0.11026796699 0.003351181047 0 
-0.11014933139 0.0035977168009 0 -0.1098318547 0.0046929847449 0 -0.10959782451 0.0048940135166 0 
-0.10896787792 0.0070904437453 0 -0.10834489018 0.0070421798155 0 -0.10695842654 0.012006897479 0 
-0.10455487669 0.011160202324 0 -0.10078413785 0.023942727596 0 -0.087837226689 0.020981390029 0 
-0.079375065863 0.055643882602 0 -0.061540748924 0.034579817206 0 -0.25991663337 0.038071941584 0 
-0.41228350997 0.061514493078 0 -0.46999338269 0.065409399569 0 -0.49302905798 0.053464569151 0 
-0.49477922916 0.034745443612 0 -0.49340075254 0.01169073116 0 -0.11049249768 0.00013913454313 0 
-0.11065126956 0.00018843502039 0 -0.11071392894 0.00021695974283 0 -0.1107397452 0.00025122863008 0 
-0.11077044159 0.00029796510353 0 -0.11079475284 0.00034728742321 0 -0.11081592739 0.00040601173532 0 
-0.11083206534 0.00046584021766 0 -0.11084342003 0.00053407490486 0 -0.11085063219 0.00060390814906 0 
-0.11085264385 0.00068351166556 0 -0.11085156351 0.00076493190136 0 -0.11084439605 0.00086040253518 0 
-0.11083550751 0.00095637771301 0 -0.11081816256 0.0010755009716 0 -0.11080126464 0.0011901400285 0 
-0.11077053845 0.0013464028016 0 -0.11074443907 0.0014845730038 0 -0.11069322377 0.0017026053974 0 
-0.11065532267 0.0018686341355 0 -0.11056893319 0.0021964746993 0 -0.11051389575 0.0023900719825 0 
-0.11036188155 0.0029283682816 0 -0.11027660966 0.0031327859033 0 -0.10999310762 0.0041097253561 0 
-0.10983430594 0.0042584529147 0 -0.10926628113 0.0062416554429 0 -0.10884446651 0.0061262301169 0 
-0.10758444667 0.010702588595 0 -0.10582356155 0.0097389928997 0 -0.10237171501 0.022024529055 0 
-0.091468401253 0.018780261278 0 -0.082287073135 0.055627115071 0 -0.05870205909 0.034253254533 0 
-0.26431027055 0.046330727637 0 -0.4156781733 0.069878324866 0 -0.46862703562 0.072922967374 0 
-0.48865953088 0.058084819466 0 -0.48893794417 0.037291057408 0 -0.48696550727 0.012542563491 0 
-0.11066136509 0.00012552505359 0 -0.11078775674 0.00016601785319 0 -0.11084825546 0.00018398942484 0 
-0.11087732762 0.00021333404584 0 -0.11090958863 0.0002528950281 0 -0.11093576252 0.00029534791247 0 
-0.11095808446 0.0003458680003 0 -0.11097554117 0.00039732377627 0 -0.1109880805 0.00045603545732 0 
-0.11099665612 0.00051599740982 0 -0.11100016534 0.00058437569533 0 -0.11100078374 0.0006541297189 0 
-0.11099566519 0.00073599658208 0 -0.11098907888 0.00081800058251 0 -0.11097465456 0.00092002947349 0 
-0.1109610498 0.0010176685173 0 -0.11093466729 0.0011514726793 0 -0.11091351509 0.0012686589034 0 
-0.11086899042 0.0014555434464 0 -0.11083895713 0.001595438458 0 -0.11076329648 0.0018771814648 0 
-0.11072193831 0.0020382869989 0 -0.11058788002 0.0025030053221 0 -0.11052944511 0.0026678640861 0 
-0.11027745157 0.0035171464551 0 -0.11018036306 0.0036202196497 0 -0.1096708402 0.0053626340814 0 
-0.10942158103 0.0051984358579 0 -0.10828199983 0.0092939399183 0 -0.10712008923 0.0082639725879 0 
-0.10398128629 0.019704898819 0 -0.095347136259 0.016260908917 0 -0.085619345307 0.054223988205 0 
-0.057017873973 0.033060535789 0 -0.26987048984 0.05649279803 0 -0.41889062524 0.079073637724 0 
-0.46670541167 0.080815002322 0 -0.48368960619 0.062711767852 0 -0.48266530037 0.039762180299 0 
-0.4801787734 0.013370162807 0 -0.11080383509 0.00010783575271 0 -0.11090753973 0.00014141222346 0 
-0.11096624285 0.00015028144117 0 -0.11099846661 0.00017514056526 0 -0.11103175581 0.00020793938893 0 
-0.11105932295 0.00024368627055 0 -0.1110823825 0.00028613826726 0 -0.11110080034 0.00032934750197 0 
-0.11111421138 0.00037862244062 0 -0.11112383008 0.00042883094284 0 -0.11112853885 0.00048605361371 0 
-0.1111305207 0.000544266426 0 -0.11112714559 0.00061257614288 0 -0.11112244427 0.00068075984018 0 
-0.11111059785 0.00076568720397 0 -0.1110996902 0.00084653642261 0 -0.11107721925 0.00095774466172 0 
-0.11106003821 0.0010542881209 0 -0.11102166027 0.0012095724232 0 -0.11099781096 0.0013239749242 0 
-0.11093223095 0.0015583869535 0 -0.11090133339 0.0016883608187 0 -0.11078458279 0.0020762432832 0 
-0.11074633896 0.0022047206294 0 -0.11052557826 0.0029174245428 0 -0.11047534645 0.0029829291161 0 
-0.11002556235 0.0044578216039 0 -0.10991344601 0.0042672911659 0 -0.10889933258 0.0077887992375 0 
-0.10826075822 0.0067589716054 0 -0.10545478016 0.01696728915 0 -0.099214524031 0.013481524773 0 
-0.089271940291 0.05103014037 0 -0.057179555297 0.030828343704 0 -0.2767803967 0.068987198174 0 
-0.42171126604 0.089136227965 0 -0.46410492063 0.088993795216 0 -0.47806629539 0.067269362509 0 
-0.47595688701 0.042113482952 0 -0.47305247188 0.014159817249 0 -0.1089816317 8.1263890024e-05 0 
-0.10906977206 0.00011234657723 0 -0.10912614316 0.00011608064233 0 -0.10916035622 0.00013679079711 0 
-0.10919358581 0.00016319137649 0 -0.10922162235 0.00019232358318 0 -0.10924466699 0.00022677207016 0 
-0.10926338285 0.00026180234272 0 -0.10927710682 0.00030166227953 0 -0.10928726196 0.00034218057408 0 
-0.10929275304 0.00038825604133 0 -0.10929566622 0.00043500013999 0 -0.10929366946 0.00048973731464 0 
-0.10929041356 0.00054420041852 0 -0.10928079486 0.00061195087619 0 -0.10927201807 0.00067617191235 0 
-0.1092530787 0.00076456560055 0 -0.109239012 0.00084076798521 0 -0.10920634121 0.00096389529062 0 
-0.10918715596 0.0010534333996 0 -0.1091311574 0.0012391416822 0 -0.10910774022 0.001339403796 0 
-0.10900785774 0.0016470085829 0 -0.10898334533 0.0017425381811 0 -0.10879391432 0.0023095442448 0 
-0.10877513885 0.0023463764228 0 -0.10838716477 0.0035269383807 0 -0.10837145895 0.0033352244645 0 
-0.10749068111 0.0061884061433 0 -0.10726232082 0.0052374433726 0 -0.10481968522 0.01378043741 0 
-0.1008708626 0.010486338288 0 -0.091296814382 0.045452881604 0 -0.058261301368 0.027314079925 0 
-0.28528210521 0.084324166179 0 -0.42388603091 0.10008431971 0 -0.46066603065 0.097327984869 0 
-0.47172120214 0.071669064462 0 -0.46878880262 0.044297110289 0 -0.46557873487 0.014897124842 0 
-0.10969880223 4.6189343266e-05 0 -0.10972559452 8.0162826634e-05 0 -0.10978265852 8.2430196926e-05 0 
-0.10982224345 9.9052907899e-05 0 -0.10985825211 0.00011930868641 0 -0.10988926888 0.00014185262262 0 
-0.10991424322 0.0001683037699 0 -0.10993485153 0.00019519131456 0 -0.10994999856 0.00022562536469 0 
-0.10996145755 0.00025650547468 0 -0.10996807367 0.00029143076972 0 -0.10997194052 0.00032678782009 0 
-0.10997099429 0.00036794366315 0 -0.10996851325 0.00040881839232 0 -0.10996011645 0.00045933865476 0 
-0.10995205492 0.00050715636462 0 -0.10993488133 0.00057255214779 0 -0.10992157459 0.00062882620841 0 
-0.10989186168 0.00071928650141 0 -0.1098735705 0.00078478612704 0 -0.10982294381 0.00092047738144 0 
-0.10980083048 0.00099281989969 0 -0.10971131176 0.0012167955283 0 -0.10968966037 0.0012835642556 0 
-0.10952112824 0.001695979503 0 -0.10951244831 0.0017147036269 0 -0.10916841775 0.0025750075001 0 
-0.10919994116 0.0024115229025 0 -0.10841709375 0.0045050284825 0 -0.10846168548 0.0037262961268 0 
-0.10628336668 0.010145900771 0 -0.10431779921 0.0073418719694 0 -0.094952985644 0.036609232426 0 
-0.061761423945 0.021597178653 0 -0.29573956132 0.10299386829 0 -0.42517662048 0.1119126305 0 
-0.45630660653 0.10564294457 0 -0.4647205174 0.075810655951 0 -0.46125847101 0.046264953911 0 
-0.45786911249 0.015567791648 0 -0.13233809173 2.2375548724e-05 0 -0.13236415386 5.5092470575e-05 0 
-0.13242989779 4.8399357183e-05 0 -0.13248108327 6.1210892454e-05 0 -0.13252492249 7.614507922e-05 0 
-0.13256332278 9.2759182735e-05 0 -0.13259379566 0.0001119051085 0 -0.13261927664 0.00013135847985 0 
-0.13263805211 0.00015306900605 0 -0.13265247643 0.00017506099539 0 -0.13266126812 0.00019957730547 0 
-0.13266660273 0.0002243732888 0 -0.13266673684 0.00025275832741 0 -0.13266453147 0.00028101241332 0 
-0.13265644014 0.00031522061909 0 -0.13264754415 0.00034785404569 0 -0.1326302141 0.00039131578524 0 
-0.13261479139 0.00042932314682 0 -0.13258486986 0.00048834178597 0 -0.13256266713 0.00053227192257 0 
-0.13251252472 0.00061925681075 0 -0.13248352706 0.00066772173159 0 -0.13239690661 0.00080907554366 0 
-0.1323633194 0.00085447687889 0 -0.13220416009 0.0011115241796 0 -0.13217577338 0.001127536525 0 
-0.13185746968 0.0016592196189 0 -0.1318654418 0.0015617017634 0 -0.13114905357 0.002851647092 0 
-0.13124904037 0.0023620966822 0 -0.12924613059 0.0063720652834 0 -0.12842267752 0.0045253066346 0 
-0.11887414753 0.025217769668 0 -0.087087877095 0.014904215932 0 -0.30794990063 0.12568891048 0 
-0.42526262999 0.12455113232 0 -0.45128452778 0.11369276047 0 -0.4575535357 0.079577557743 0 
-0.45389303565 0.047972943634 0 -0.45044875145 0.016160445288 0 -0.10587376356 -2.0741368644e-05 0 
-0.10592284054 1.2553920897e-05 0 -0.10597242415 1.1687648112e-05 0 -0.10601269454 2.2213034754e-05 0 
-0.10604643077 3.3388019801e-05 0 -0.10607615113 4.5496610255e-05 0 -0.10609959066 5.8871333749e-05 0 
-0.10611926764 7.239945262e-05 0 -0.10613372922 8.6964857474e-05 0 -0.10614485294 0.00010164633568 0 
-0.10615166277 0.00011740846094 0 -0.10615578294 0.00013334219693 0 -0.10615602136 0.0001507789857 0 
-0.10615431517 0.0001683394803 0 -0.10614836961 0.00018837329117 0 -0.10614146292 0.00020814231539 0 
-0.10612869263 0.00023234504624 0 -0.10611663014 0.00025504783844 0 -0.10609472543 0.0002861864341 0 
-0.10607708991 0.00031255322392 0 -0.10604079813 0.00035587101593 0 -0.10601710528 0.00038622142165 0 
-0.10595523566 0.00045254846918 0 -0.10592613369 0.00048553646775 0 -0.10581407696 0.00059947953559 0 
-0.10578485578 0.00062833866104 0 -0.1055637002 0.00085272075376 0 -0.10555476695 0.00085378909716 0 
-0.10506211966 0.0013796886196 0 -0.10512618721 0.001278368989 0 -0.10376123339 0.0029402161017 0 
-0.10348072648 0.0026092547923 0 -0.096966095269 0.013444140553 0 -0.078815586865 0.012560497038 0 
-0.31852161884 0.14975933731 0 -0.4233738184 0.13570633531 0 -0.44645166397 0.11997292191 0 
-0.45130714774 0.082349926233 0 -0.44788011909 0.049175806344 0 -0.44445830584 0.016593877226 0 
-0.10929852724 -4.2560499423e-05 0 -0.10935600847 -2.3148700166e-06 0 -0.10940586776 1.9661938495e-06 0 
-0.10944757611 1.6692058125e-05 0 -0.10948218405 3.2022504456e-05 0 -0.10951278359 4.842115959e-05 0 
-0.10953684151 6.6124848672e-05 0 -0.10955708474 8.4058570792e-05 0 -0.1095719561 0.00010295563698 0 
-0.10958342254 0.00012201209029 0 -0.10959048569 0.00014197987912 0 -0.10959478468 0.00016221706755 0 
-0.10959514976 0.00018366686709 0 -0.10959348828 0.00020550994668 0 -0.10958760977 0.00022929611441 0 
-0.10958063602 0.00025346403709 0 -0.10956789553 0.0002809947473 0 -0.10955562443 0.00030847804737 0 
-0.10953377187 0.00034208959551 0 -0.10951571912 0.00037415442057 0 -0.10947960615 0.00041801281623 0 
-0.10945513844 0.00045616758871 0 -0.10939382017 0.00051843095571 0 -0.10936324298 0.00056419032626 0 
-0.10925269872 0.00066260190215 0 -0.10922070593 0.00071662385017 0 -0.10900358111 0.00089499622118 0 
-0.1089899987 0.00095490168314 0 -0.10850865394 0.0013449300313 0 -0.10857350379 0.0014096571831 0 
-0.10725293308 0.0026365488302 0 -0.10717913508 0.0029527444858 0 -0.10102538019 0.012653457001 0 
-0.087945200503 0.015849715099 0 -0.32473379374 0.16403904557 0 -0.42166307569 0.14181210101 0 
-0.44352337718 0.12317882478 0 -0.44767379761 0.083733275533 0 -0.44449228048 0.049759827554 0 
-0.4410969615 0.01681227237 0 -0.11011904478 -5.8055316913e-05 0 -0.11017844826 -1.2070965568e-05 0 
-0.1102277413 1.8960599846e-07 0 -0.11027026176 2.4317552743e-05 0 -0.11030519754 4.9854872486e-05 0 
-0.1103362143 7.7082273492e-05 0 -0.1103605032 0.0001062227384 0 -0.11038100719 0.00013589196897 0 
-0.11039602757 0.00016687024618 0 -0.11040764302 0.00019822761533 0 -0.11041481793 0.00023072850308 0 
-0.11041920632 0.00026379039627 0 -0.11041968316 0.00029828608967 0 -0.11041807383 0.00033366470598 0 
-0.11041232944 0.00037123440416 0 -0.11040537804 0.00041003187653 0 -0.11039285362 0.00045241991756 0 
-0.11038056761 0.0004962363746 0 -0.11035909504 0.00054618815193 0 -0.11034093797 0.00059725734172 0 
-0.11030554771 0.00065935781458 0 -0.11028073728 0.00072085141437 0 -0.11022089422 0.00080349692143 0 
-0.11018943787 0.0008801294025 0 -0.1100820899 0.0010004725773 0 -0.1100480333 0.0010999187361 0 
-0.1098383069 0.0012980466709 0 -0.10982055217 0.0014360097703 0 -0.10935851932 0.0018280481454 0 
-0.10942365229 0.0020633942913 0 -0.10817703605 0.0032232652884 0 -0.10833940655 0.0041176239029 0 
-0.10278856009 0.014032881707 0 -0.095989510417 0.020697435364 0 -0.33095932007 0.17838555574 0 
-0.41939207911 0.14759674668 0 -0.44035553932 0.12599053979 0 -0.44391402602 0.084921762347 0 
-0.44105175138 0.05024440214 0 -0.4377002418 0.017002418637 0 -0.1098138988 -7.3518735007e-05 0 
-0.10987922549 -1.8624772565e-05 0 -0.10992754251 8.0239788076e-06 0 -0.10997051746 4.9751557526e-05 0 
-0.11000542343 9.4969356724e-05 0 -0.11003655195 0.00014322790958 0 -0.11006080359 0.00019475894806 0 
-0.11008133739 0.00024751355522 0 -0.11009635031 0.00030242936919 0 -0.11010800302 0.00035825229133 0 
-0.11011523753 0.00041588780005 0 -0.11011970043 0.00047471025027 0 -0.11012033373 0.00053569267038 0 
-0.11011887342 0.00059847527882 0 -0.11011341959 0.00066439685179 0 -0.11010670662 0.00073295412585 0 
-0.11009467393 0.00080638023792 0 -0.1100827083 0.00088341772789 0 -0.11006207764 0.00096825166838 0 
-0.11004430056 0.0010576703353 0 -0.11001037061 0.0011601030128 0 -0.10998594761 0.001267723972 0 
-0.1099287644 0.0013984136749 0 -0.10989750922 0.0015335747739 0 -0.10979539156 0.0017128953477 0 
-0.10976092517 0.0018924146425 0 -0.10956243426 0.0021648511756 0 -0.10954316705 0.0024258084595 0 
-0.10910914838 0.0029119267128 0 -0.10918020457 0.003377243178 0 -0.10803706199 0.0046488633379 0 
-0.10848243535 0.006171932444 0 -0.10376041383 0.016412783414 0 -0.10417768359 0.026682270691 0 
-0.33711016178 0.19258922338 0 -0.41657555103 0.15307796001 0 -0.43693810701 0.12843807042 0 
-0.44003507495 0.085938960314 0 -0.4375500679 0.050641581416 0 -0.43425965309 0.017168661579 0 
-0.10963148624 -9.2883434263e-05 0 -0.10970664024 -2.1104657208e-05 0 -0.10975456983 3.2300504245e-05 0 
-0.10979839414 0.00010672490316 0 -0.10983351618 0.00018894768436 0 -0.10986499488 0.00027689684066 0 
-0.10988938063 0.00037079464528 0 -0.10991012305 0.00046735774959 0 -0.10992527008 0.00056780100567 0 
-0.1099371314 0.00067025836324 0 -0.10994458944 0.00077591999434 0 -0.10994934291 0.00088402087567 0 
-0.10995034873 0.0009958128212 0 -0.10994932801 0.0011111410568 0 -0.10994447023 0.001231627306 0 
-0.10993837565 0.0013572905445 0 -0.10992727429 0.0014906250872 0 -0.10991618037 0.0016313273227 0 
-0.10989696532 0.0017837140476 0 -0.10988038778 0.0019463181961 0 -0.10984870791 0.002127260901 0 
-0.10982587934 0.0023221517913 0 -0.10977248847 0.0025472547859 0 -0.10974334925 0.0027913853992 0 
-0.10964808613 0.0030888053589 0 -0.10961648077 0.0034132192377 0 -0.10943176597 0.0038403945509 0 
-0.10941721499 0.0043132044375 0 -0.10901585966 0.0050129569136 0 -0.10910633951 0.0058412421495 0 
-0.10807967931 0.0074109015986 0 -0.10884202272 0.0097584314644 0 -0.10506797582 0.020129017532 0 
-0.11326354742 0.034780919552 0 -0.3431199491 0.20643828809 0 -0.41321998835 0.15823723376 0 
-0.43329942226 0.13053037226 0 -0.4360717833 0.086799107492 0 -0.43401616812 0.050959505141 0 
-0.43080145121 0.017314119264 0 -0.10933338851 -0.00011963124416 0 -0.1094231233 -1.6137737475e-05 0 
-0.10947147012 8.7239648565e-05 0 -0.10951666534 0.00022305508901 0 -0.10955239832 0.00037507881643 0 
-0.10958456993 0.00053805677453 0 -0.10960940272 0.00071213120827 0 -0.10963066667 0.0008917353116 0 
-0.10964630544 0.0010785595514 0 -0.10965874791 0.0012696065241 0 -0.10966686904 0.0014665912604 0 
-0.10967241228 0.0016684585717 0 -0.10967437923 0.0018770298921 0 -0.10967446119 0.0020924380515 0 
-0.10967098922 0.0023169761989 0 -0.10966643691 0.0025514187291 0 -0.10965729505 0.002799077658 0 
-0.109648332 0.0030609439127 0 -0.10963194817 0.0033423115965 0 -0.10961830616 0.0036438868847 0 
-0.10959080607 0.0039748470299 0 -0.10957208276 0.0043347524479 0 -0.1095251888 0.0047405790538 0 
-0.10950193554 0.0051892073825 0 -0.10941749811 0.0057136304677 0 -0.10939482599 0.006306361407 0 
-0.10923011601 0.0070338053629 0 -0.10923093557 0.0078896600753 0 -0.10887318105 0.0090131331235 0 
-0.10900326073 0.010468667373 0 -0.10811505467 0.012660673819 0 -0.10920839757 0.016289351508 0 
-0.10647735 0.026768503711 0 -0.12264285982 0.047423478216 0 -0.34886041284 0.21967183053 0 
-0.40934583545 0.16303451359 0 -0.42947170138 0.13226521015 0 -0.43205454946 0.087511077523 0 
-0.4304741323 0.051203936338 0 -0.42734652758 0.017440995201 0 -0.10758142918 -0.0001595360518 0 
-0.10768990219 3.5783402836e-06 0 -0.10773941875 0.0002009467571 0 -0.1077863127 0.00045332947047 0 
-0.10782279819 0.00073809764581 0 -0.10785569251 0.0010439511389 0 -0.10788097978 0.0013707885519 0 
-0.10790271312 0.0017087545712 0 -0.10791879147 0.0020603886805 0 -0.10793176293 0.0024205688387 0 
-0.10794053227 0.0027919861022 0 -0.10794685781 0.0031730155461 0 -0.10794981569 0.0035665875766 0 
-0.10795107484 0.0039733010344 0 -0.10794908553 0.0043968316168 0 -0.10794623941 0.0048391991295 0 
-0.10793926567 0.0053055291064 0 -0.10793270171 0.0057988539338 0 -0.10791946203 0.0063269142993 0 
-0.10790917277 0.006893619895 0 -0.10788632929 0.0075114830397 0 -0.10787232965 0.0081854732707 0 
-0.10783261061 0.0089369807392 0 -0.10781617463 0.0097732981667 0 -0.10774357617 0.010732335038 0 
-0.10773118585 0.011830241419 0 -0.10758808255 0.013134263456 0 -0.1076060012 0.01470248308 0 
-0.10729473829 0.01664663665 0 -0.10746314377 0.019243191928 0 -0.10671553761 0.022688180208 0 
-0.10805500299 0.028558799997 0 -0.1063458547 0.039827130735 0 -0.12950071692 0.069491907954 0 
-0.353756845 0.23190967739 0 -0.40490740538 0.16741263866 0 -0.42540243268 0.13363602757 0 
-0.42793819308 0.088080897927 0 -0.42687749863 0.051379203796 0 -0.42384833097 0.017550557852 0 
-0.1056278944 -0.00022264827567 0 -0.10575947911 5.3221410781e-05 0 -0.10581468046 0.0004267738841 0 
-0.10586646199 0.00090041314252 0 -0.10590533167 0.0014372653095 0 -0.10593986511 0.0020146619063 0 
-0.10596570373 0.002631921554 0 -0.10598743707 0.0032710940577 0 -0.10600296408 0.0039362721145 0 
-0.10601504147 0.0046183168888 0 -0.10602261871 0.0053217438981 0 -0.10602755845 0.0060438215733 0 
-0.10602897406 0.0067895990796 0 -0.10602855682 0.0075604761951 0 -0.10602481663 0.0083628343418 0 
-0.10602010041 0.0092008672655 0 -0.10601125658 0.010083357804 0 -0.10600263625 0.011016806588 0 
-0.10598742217 0.012014089152 0 -0.10597486049 0.013084317558 0 -0.1059499979 0.014247455634 0 
-0.10593342036 0.015516763553 0 -0.10589186847 0.016924627125 0 -0.10587248951 0.018493482843 0 
-0.10579905659 0.020276900381 0 -0.10578346997 0.022324519232 0 -0.10564345866 0.02472146228 0 
-0.10565903038 0.027617583051 0 -0.1053667739 0.031119760126 0 -0.10554277152 0.03581450507 0 
-0.10489947349 0.041696406901 0 -0.10638881475 0.051653109491 0 -0.10580920428 0.065902836621 0 
-0.13485856354 0.10989427567 0 -0.35622617602 0.24253438413 0 -0.39969646931 0.17127865553 0 
-0.42079681158 0.13463629782 0 -0.423484236 0.088511131704 0 -0.4229952395 0.05148775503 0 
-0.42008855939 0.017642010003 0 -0.12753807008 -0.000360235892 0 -0.1277576834 0.00019116923795 0 
-0.12784619629 0.00098850403447 0 -0.12792639434 0.0020008559804 0 -0.12798328698 0.003151480807 0 
-0.12803274393 0.0043902588077 0 -0.12806864083 0.0057150367647 0 -0.12809829414 0.0070881475694 0 
-0.12811917067 0.0085174776614 0 -0.12813541293 0.0099840806797 0 -0.12814593315 0.011496938765 0 
-0.12815336883 0.013050574809 0 -0.12815691531 0.014655252919 0 -0.12815885246 0.016314225271 0 
-0.12815764546 0.018040591851 0 -0.12815633416 0.019843647256 0 -0.12815141678 0.021741367877 0 
-0.12814846635 0.023748282343 0 -0.12813967466 0.025890430436 0 -0.12813669443 0.028188657016 0 
-0.12812232971 0.030682556331 0 -0.1281221807 0.033403482288 0 -0.12809798121 0.036414008588 0 
-0.12810799479 0.039768591523 0 -0.12806481123 0.043567162007 0 -0.12810595334 0.04792913422 0 
-0.12802454829 0.053004428744 0 -0.12816384435 0.059136375785 0 -0.12800954282 0.066482625902 0 
-0.12851773202 0.076305449009 0 -0.12834145129 0.088381506503 0 -0.1312199384 0.10860093683 0 
-0.13411302865 0.13391306996 0 -0.17895315588 0.21361060441 0 -0.35428068042 0.25373327732 0 
-0.39181238413 0.17558565736 0 -0.4137930274 0.13548275828 0 -0.41704618931 0.088896110654 0 
-0.4173605144 0.05154338479 0 -0.41466867924 0.017736706883 0 -0.10610345751 -0.00026052750763 0 
-0.10652405769 0.00043040898163 0 -0.10667490959 0.0014610049548 0 -0.10680202395 0.0027806446888 0 
-0.10688719898 0.004286010284 0 -0.10696024448 0.0059087080881 0 -0.1070143953 0.0076457988471 0 
-0.10706074536 0.0094483811408 0 -0.10709774494 0.011326096021 0 -0.10713095963 0.013254528865 0 
-0.10716037452 0.015244732611 0 -0.10718941689 0.017289686948 0 -0.10721830279 0.019402191043 0 
-0.10724984854 0.021586488932 0 -0.10728376359 0.023859065026 0 -0.10732347518 0.026232017204 0 
-0.10736740381 0.028727989644 0 -0.1074212417 0.031365983188 0 -0.10748065263 0.034178584814 0 
-0.10755670816 0.037193249911 0 -0.10763900727 0.040458951145 0 -0.10775081068 0.044017318636 0 
-0.10786799341 0.047944463789 0 -0.1080417037 0.052312854677 0 -0.10821623355 0.057241421193 0 
-0.10850953311 0.06288702786 0 -0.10879188776 0.069422356784 0 -0.10935389996 0.077285028994 0 
-0.10989380628 0.086640715599 0 -0.11122275144 0.099037542939 0 -0.1127153039 0.11412891746 0 
-0.11757420003 0.13884972036 0 -0.12663052976 0.16830171645 0 -0.16942086816 0.24896244705 0 
-0.34093928337 0.25517070293 0 -0.37896251678 0.17820486426 0 -0.40226858854 0.13528096676 0 
-0.40700030327 0.088861659169 0 -0.40848964453 0.051350023597 0 -0.40619498491 0.017786711454 0 
-0.10867448151 -0.00011404305405 0 -0.10929887742 0.00066625839099 0 -0.10953042656 0.0018065718468 0 
-0.10971881449 0.0032548175659 0 -0.10984262824 0.0049119428732 0 -0.10994622111 0.0066994442604 0 
-0.11002247781 0.008615385741 0 -0.11008647084 0.010605967604 0 -0.11013766378 0.01268167235 0 
-0.11018326879 0.01481585484 0 -0.11022428423 0.017020313069 0 -0.11026508361 0.019287444651 0 
-0.11030671 0.021630968899 0 -0.11035264283 0.02405565232 0 -0.11040338129 0.026579283178 0 
-0.11046290398 0.029215354472 0 -0.1105305776 0.031988345087 0 -0.11061264575 0.034919600934 0 
-0.11070629209 0.03804422915 0 -0.11082319915 0.041393410414 0 -0.11095585674 0.045019470155 0 
-0.11112810671 0.048970222473 0 -0.11132204533 0.053326044232 0 -0.11158894002 0.058170579374 0 
-0.11188788712 0.0636273399 0 -0.1123348102 0.069875627756 0 -0.112839818 0.077089890838 0 
-0.11368371546 0.085757240653 0 -0.11469076574 0.096027620137 0 -0.11663499475 0.10956265032 0 
-0.11939319223 0.12588128448 0 -0.12592439353 0.15205827355 0 -0.13973921537 0.18165577948 0 
-0.18079075217 0.25338479877 0 -0.32806482911 0.24821165204 0 -0.36610752344 0.17724859715 0 
-0.39072185755 0.13366547227 0 -0.39704862237 0.088215909898 0 -0.39969393611 0.050887331367 0 
-0.39779451489 0.017749905586 0 -0.10909242183 4.5800527005e-05 0 -0.10985796899 0.0008776866016 0 
-0.11017247289 0.0020674667321 0 -0.11042588204 0.0035579393152 0 -0.11059190333 0.0052670747973 0 
-0.11072929949 0.0071101938374 0 -0.11083101481 0.0090883392841 0 -0.11091647297 0.011145585217 0 
-0.11098633707 0.013293316588 0 -0.1110496819 0.015504036099 0 -0.1111087203 0.017789909616 0 
-0.11116892099 0.020143121481 0 -0.11123237759 0.022577684373 0 -0.11130343378 0.025098593906 0 
-0.11138359457 0.027724029496 0 -0.11147771031 0.03046814166 0 -0.11158639938 0.033355962485 0 
-0.11171696335 0.036410056055 0 -0.11186847091 0.039666220546 0 -0.11205410212 0.043157752603 0 
-0.11226971447 0.046937674284 0 -0.11254131049 0.051057562232 0 -0.11285776645 0.055597972125 0 
-0.11327350885 0.060649581254 0 -0.11376279593 0.06633400172 0 -0.11444599181 0.072844177485 0 
-0.11527183652 0.080345466733 0 -0.11652648449 0.089350730181 0 -0.11815022677 0.099973350763 0 
-0.12091626972 0.11390361935 0 -0.12512931228 0.13047020137 0 -0.13353469968 0.15646645427 0 
-0.15132826567 0.18408881128 0 -0.19113154709 0.24470134079 0 -0.31594595313 0.23642811179 0 
-0.3536131978 0.1733379364 0 -0.37923938036 0.13079726696 0 -0.38709625602 0.086985401809 0 
-0.39083763957 0.050165176392 0 -0.38931900263 0.017621170729 0 -0.10908871889 0.00018842943246 0 
-0.10997597873 0.0010636150837 0 -0.1103727892 0.0022849028464 0 -0.11069158465 0.0037842863239 0 
-0.11090164632 0.0055055459961 0 -0.11107420176 0.007359365467 0 -0.11120266467 0.0093513866886 0 
-0.11131051183 0.011424534023 0 -0.11139973253 0.013591363095 0 -0.11148119718 0.015823991969 0 
-0.11155836284 0.018134891987 0 -0.11163780093 0.020516108721 0 -0.11172266304 0.022981707007 0 
-0.11181814969 0.02553671971 0 -0.1119268015 0.028199309483 0 -0.11205431074 0.030983882025 0 
-0.11220255494 0.033915411681 0 -0.11237984896 0.037017036229 0 -0.11258721352 0.040324371308 0 
-0.1128391549 0.04387184605 0 -0.11313508451 0.047711860389 0 -0.11350283027 0.051898147911 0 
-0.11393842846 0.056509390473 0 -0.11449876428 0.061640311033 0 -0.11517407745 0.067407272756 0 
-0.11608748138 0.074010252953 0 -0.1172278896 0.081599719822 0 -0.11888173968 0.090696282685 0 
-0.12110543251 0.1013655141 0 -0.12464838475 0.11526443064 0 -0.13020195067 0.1315189749 0 
-0.14015091956 0.1563859731 0 -0.1607414186 0.18120363355 0 -0.19853258133 0.23080265522 0 
-0.30494594574 0.22222916782 0 -0.34181451797 0.16735690832 0 -0.3679921031 0.12694591284 0 
-0.37719908357 0.08523722738 0 -0.38192418218 0.049203481525 0 -0.38075843453 0.01740139164 0 
-0.10928760469 0.00030704826349 0 -0.11026828736 0.0012256271439 0 -0.11074344069 0.0024752095342 0 
-0.11112569273 0.0039720740169 0 -0.11138039082 0.0056904568337 0 -0.11158877611 0.0075369221158 0 
-0.11174498498 0.009522988461 0 -0.11187624186 0.011590755545 0 -0.11198587716 0.0137542421 0 
-0.11208654195 0.015985351056 0 -0.11218293756 0.018296871334 0 -0.11228273809 0.0206807293 0 
-0.11239017546 0.023150939494 0 -0.1125113368 0.025712456554 0 -0.11264979094 0.028383228928 0 
-0.11281212419 0.031177671626 0 -0.11300150305 0.03412039578 0 -0.11322726309 0.037234727293 0 
-0.11349242926 0.040555614978 0 -0.11381287873 0.044117990881 0 -0.11419157684 0.04797289893 0 
-0.11465826631 0.052175100893 0 -0.11521606892 0.056800264865 0 -0.11592443287 0.061944913119 0 
-0.11678915471 0.067718267441 0 -0.11793617904 0.074322208762 0 -0.11939245462 0.081888981164 0 
-0.12144383788 0.090933009982 0 -0.12425141037 0.10146692395 0 -0.12853008509 0.11506891251 0 
-0.13528057933 0.13067995012 0 -0.14647170901 0.1538810432 0 -0.16883769631 0.17570137978 0 
-0.20446592569 0.2154161334 0 -0.29529556632 0.20732820034 0 -0.33089697361 0.16013626754 0 
-0.35715281963 0.12239751965 0 -0.3674583137 0.083058528602 0 -0.37301903963 0.048030212522 0 
-0.37216573954 0.017096653581 0 -0.1095091477 0.00040302012349 0 -0.11056114733 0.0013664491707 0 
-0.11110989004 0.0026455502957 0 -0.11155285686 0.0041374498978 0 -0.1118522957 0.0058483877219 0 
-0.112096861 0.0076808938757 0 -0.1122816354 0.0096533279866 0 -0.11243718117 0.011707043275 0 
-0.11256821454 0.013857806101 0 -0.1126890853 0.01607735455 0 -0.11280575395 0.018378859386 0 
-0.11292699724 0.020754123107 0 -0.11305812746 0.023217068985 0 -0.1132061407 0.025772510096 0 
-0.11337567121 0.028438076377 0 -0.11357419938 0.031228052452 0 -0.11380620301 0.034166507423 0 
-0.11408208311 0.037276692688 0 -0.11440688372 0.040592633188 0 -0.11479789019 0.044149301946 0 
-0.11526162177 0.047995962203 0 -0.11582980305 0.052187561989 0 -0.1165124923 0.056796070188 0 
-0.11737180501 0.061918053776 0 -0.1184284687 0.067654438317 0 -0.11981124431 0.074204906821 0 
-0.12158241868 0.08168168366 0 -0.12402608991 0.090581797063 0 -0.12739442289 0.10086440295 0 
-0.13235919178 0.11399587989 0 -0.14015033841 0.12876804173 0 -0.15231509507 0.15002833307 0 
-0.17564566433 0.16895017028 0 -0.20919050276 0.20025622845 0 -0.28688305616 0.19273522496 0 
-0.32088717818 0.1522988826 0 -0.34680989385 0.11740016192 0 -0.35793918371 0.080538235605 0 
-0.36417159438 0.0466767326 0 -0.36358353496 0.016715688631 0 -0.10976372659 0.00047982120304 0 
-0.11087013036 0.0014889915474 0 -0.11148700863 0.0027994660195 0 -0.11198719591 0.0042873476632 0 
-0.11233091354 0.0059904418886 0 -0.11261159927 0.0078071700409 0 -0.11282547563 0.0097633916885 0 
-0.11300595105 0.011799721047 0 -0.11315914243 0.013933913782 0 -0.11330100149 0.016137564555 0 
-0.11343873292 0.018424294889 0 -0.11358222365 0.020785782486 0 -0.11373785883 0.023235855624 0 
-0.11391354352 0.025779141113 0 -0.11411498487 0.028432896361 0 -0.11435054988 0.03121117875 0 
-0.11462605 0.03413740918 0 -0.11495296657 0.037234596908 0 -0.11533833295 0.040535647422 0 
-0.11580085009 0.044075254351 0 -0.11635053903 0.047900620848 0 -0.11702107638 0.052066214383 0 
-0.11782924831 0.056639853865 0 -0.1188397184 0.061716724187 0 -0.12008734047 0.067388787866 0 
-0.12170325965 0.073850080371 0 -0.12378176302 0.08119212091 0 -0.12660335004 0.089885525405 0 
-0.130496189 0.099838837981 0 -0.13608120382 0.11238396913 0 -0.1447416693 0.12620806694 0 
-0.15762649477 0.14542277157 0 -0.1812825352 0.1616704762 0 -0.21282826364 0.18602862954 0 
-0.27952554822 0.17894805968 0 -0.31173568964 0.14425781369 0 -0.33699566126 0.11214637011 0 
-0.34868198633 0.077757135034 0 -0.35542064905 0.045174647123 0 -0.35504835844 0.016268474981 0 
-0.11005085707 0.0005412720493 0 -0.11119884253 0.0015958823496 0 -0.11187823862 0.0029388524126 0 
-0.11243188381 0.0044246925972 0 -0.11281904578 0.0061210398562 0 -0.1131355539 0.0079220952466 0 
-0.11337889731 0.0098616043106 0 -0.11358482391 0.011879421771 0 -0.11376085132 0.013995494694 0 
-0.11392442882 0.016181288287 0 -0.11408400536 0.018450943753 0 -0.11425052583 0.020796010271 0 
-0.11443145573 0.023230236024 0 -0.11463560164 0.02575802803 0 -0.11486973614 0.02839624323 0 
-0.11514315009 0.031158635393 0 -0.11546295881 0.03406791389 0 -0.11584172398 0.037146687508 0 
-0.11628843844 0.040426641703 0 -0.11682323366 0.043941885233 0 -0.11745949835 0.047737382352 0 
-0.11823283881 0.051866549999 0 -0.11916643381 0.056392766535 0 -0.12032737583 0.0614085868 0 
-0.12176352739 0.066996641457 0 -0.12360793352 0.073342390358 0 -0.1259829551 0.080516718328 0 
-0.12916353345 0.088956743479 0 -0.13353787363 0.09852540493 0 -0.13967108727 0.11040658504 0 
-0.14903071523 0.12322803587 0 -0.1624109 0.1404004097 0 -0.18591187894 0.15423758328 0 
-0.21554276347 0.1729477644 0 -0.27304643393 0.16615849733 0 -0.30336213112 0.13626593351 0 
-0.32771104574 0.10677619278 0 -0.33971190453 0.074784599245 0 -0.34679910541 0.043554112315 0 
-0.34659400582 0.015765395015 0 -0.11036696285 0.00059073441662 0 -0.11154702306 0.0016893525608 0 
-0.11228342354 0.0030649327673 0 -0.1128866747 0.0045507689938 0 -0.11331614107 0.006241842173 0 
-0.11366793513 0.0080280387774 0 -0.11394094676 0.0099511342123 0 -0.11417271942 0.011950206012 0 
-0.11437218636 0.014047540724 0 -0.1145581454 0.016214486212 0 -0.11474025995 0.018465764821 0 
-0.11493051797 0.020792808384 0 -0.1151374504 0.023209286854 0 -0.11537076533 0.025719372556 0 
-0.11563830823 0.028339499608 0 -0.11595025659 0.031083056703 0 -0.11631504446 0.033971983939 0 
-0.11674627662 0.037028364837 0 -0.1172548905 0.04028255865 0 -0.11786238849 0.043767869473 0 
-0.11858543754 0.047526840121 0 -0.11946145445 0.051611341536 0 -0.12051964551 0.056080091745 0 
-0.12182927877 0.06102193892 0 -0.12345002592 0.066509976983 0 -0.12551614642 0.072718642652 0 
-0.12817382812 0.079698726535 0 -0.13169053197 0.087848588824 0 -0.13649857044 0.096991799772 0 
-0.14310480654 0.10815823078 0 -0.15300168097 0.11995758116 0 -0.16668222845 0.13515733182 0 
-0.18967986107 0.14684584737 0 -0.21747867763 0.16100595891 0 -0.26728653908 0.15439261496 0 
-0.29567703605 0.12846802175 0 -0.31893903017 0.10138807446 0 -0.331043154 0.071678772569 0 
-0.33833450079 0.041843052953 0 -0.33825108409 0.015216713771 0 -0.11071010679 0.00063091667835 0 
-0.1119152531 0.0017712420085 0 -0.11270338297 0.003178645391 0 -0.11335243285 0.0046662073582 0 
-0.11382284015 0.0063533978537 0 -0.11420921236 0.0081257484853 0 -0.114511922 0.010032990947 0 
-0.1147698313 0.012013416737 0 -0.11499322206 0.014091751538 0 -0.11520213634 0.016239242628 0 
-0.11540742218 0.018471237272 0 -0.11562206596 0.020779058337 0 -0.11585565656 0.023176310584 0 
-0.11611878872 0.025666916743 0 -0.11642034352 0.028266860172 0 -0.11677140743 0.030989116058 0 
-0.1171816811 0.033854801208 0 -0.11766583472 0.036885365844 0 -0.11823665351 0.040109761059 0 
-0.11891699582 0.043560236692 0 -0.11972659826 0.047276802361 0 -0.12070462853 0.051309321076 0 
-0.12188581377 0.055711675435 0 -0.1233413592 0.060568057001 0 -0.12514132261 0.065941944718 0 
-0.12742044032 0.071994759142 0 -0.13034428656 0.078758083284 0 -0.13417100906 0.086587883532 0 
-0.13936175406 0.095275193453 0 -0.1463650018 0.10569617152 0 -0.15664932132 0.11647734791 0 
-0.17046263814 0.12981335819 0 -0.19271327555 0.13959723711 0 -0.21875923872 0.15010909736 0 
-0.26211076975 0.14359733462 0 -0.28859376907 0.12094200402 0 -0.3106534183 0.096050493419 0 
-0.32268238068 0.068488173187 0 -0.33004969358 0.040066894144 0 -0.33004668355 0.014632258564 0 
-0.11107861251 0.00066390633583 0 -0.11230372638 0.0018430480268 0 -0.11313864589 0.0032807954121 0 
-0.11382985115 0.0047713862732 0 -0.11433965713 0.0064558330923 0 -0.11475972831 0.0082153268158 0 
-0.11509204656 0.010107314214 0 -0.11537624151 0.012069296092 0 -0.11562397331 0.014128488488 0 
-0.11585632712 0.016256049275 0 -0.11608535051 0.018467994407 0 -0.11632496864 0.020755542442 0 
-0.11658579856 0.023132236674 0 -0.11687929928 0.025601733476 0 -0.11721538752 0.028179552406 0 
-0.11760603637 0.030878199264 0 -0.11806218326 0.033717930317 0 -0.11859951913 0.036719437689 0 
-0.11923262477 0.039910189807 0 -0.1199856177 0.043321173638 0 -0.12088116258 0.046989746392 0 
-0.1219599843 0.05096334964 0 -0.1232618466 0.055290896446 0 -0.12485951185 0.060051083565 0 
-0.12683196366 0.065297812223 0 -0.12931361794 0.071177922189 0 -0.13248488307 0.077704899013 0 
-0.1365929842 0.085190273821 0 -0.14211386442 0.093399420381 0 -0.14943918586 0.1030600518 0 
-0.15997557342 0.11284308881 0 -0.17377915978 0.1244456917 0 -0.19512037933 0.13254654408 0 
-0.2194904834 0.14014039934 0 -0.25740838051 0.13368910551 0 -0.28203389049 0.11372693628 0 
-0.30282410979 0.090811401606 0 -0.31463119388 0.065253444016 0 -0.32196351886 0.038248546422 0 
-0.32200464606 0.014021236449 0 -0.11147111654 0.00069127144525 0 -0.11271246523 0.0019059843617 0 
-0.11358962953 0.0033721087966 0 -0.11431954056 0.004866593983 0 -0.11486706138 0.0065491297282 0 
-0.11531985551 0.0082966405898 0 -0.1156815365 0.010173907503 0 -0.11599206179 0.012117652223 0 
-0.11626443267 0.014157577418 0 -0.11652065814 0.01626477018 0 -0.11677389592 0.018455933779 0 
-0.11703898758 0.020722189918 0 -0.11732756346 0.023077027872 0 -0.11765190959 0.025523820892 0 
-0.11802295595 0.028077604249 0 -0.11845353246 0.030750364065 0 -0.11895578355 0.033561445773 0 
-0.11954636872 0.03653069213 0 -0.12024158239 0.039684008807 0 -0.1210667491 0.043050911278 0 
-0.12204717845 0.04666601494 0 -0.12322502583 0.050573945045 0 -0.12464449555 0.054818559438 0 
-0.1263795644 0.059472367167 0 -0.12851652503 0.064579799771 0 -0.13118863106 0.07027194649 0 
-0.13458670676 0.076545573771 0 -0.13894569874 0.083667062223 0 -0.14474368095 0.091382741928 0 
-0.15231859684 0.10028096288 0 -0.16298705339 0.10909735411 0 -0.17666114867 0.11910671741 0 
-0.1969922334 0.12572394311 0 -0.21976268291 0.13098706305 0 -0.25308981538 0.12457847595 0 
-0.27592870593 0.10683999956 0 -0.29542016983 0.08570484072 0 -0.30688777566 0.062008865178 0 
-0.31409138441 0.036408472806 0 -0.31414544582 0.013392128982 0 -0.11188650876 0.00071417249274 0 
-0.1131413579 0.0019610365853 0 -0.11405660957 0.0034532523714 0 -0.11482202262 0.0049520879984 0 
-0.11540549994 0.006633234676 0 -0.11588992178 0.0083694793284 0 -0.11628059298 0.01023245696 0 
-0.11661738902 0.01215812657 0 -0.11691460758 0.014178634621 0 -0.11719502509 0.016265010461 0 
-0.11747288704 0.018434653059 0 -0.11776389182 0.020678594708 0 -0.11808062345 0.02301027067 0 
-0.11843620241 0.025432750583 0 -0.11884251982 0.027960566804 0 -0.11931324005 0.030605141073 0 
-0.11986165494 0.033384863287 0 -0.1205053702 0.03631862253 0 -0.12126225978 0.039430692792 0 
-0.12215875089 0.042748942971 0 -0.12322258949 0.046305146068 0 -0.12449714541 0.050140779465 0 
-0.1260304302 0.054294593632 0 -0.12789720297 0.058832317591 0 -0.1301895231 0.063789144158 0 
-0.13303858042 0.069279670715 0 -0.13664136827 0.075285382569 0 -0.14121943712 0.082028113306 0 
-0.14724224806 0.089241236448 0 -0.15499775112 0.097385473549 0 -0.16569365561 0.1052749902 0 
-0.17913883924 0.11383360624 0 -0.19840534031 0.11914610118 0 -0.2196521908 0.12254954129 0 
-0.24908316135 0.11618103832 0 -0.2702190578 0.10028623044 0 -0.28841137886 0.080755233765 0 
-0.29944804311 0.058783400804 0 -0.3064455688 0.03456480056 0 -0.30648645759 0.012752637267 0 
-0.11232383549 0.00073346082354 0 -0.11359018087 0.0020090087783 0 -0.11453978717 0.0035248377826 0 
-0.1153377369 0.0050281146541 0 -0.11595535278 0.0067081009038 0 -0.11647024751 0.0084336213768 0 
-0.11688941717 0.010282617062 0 -0.11725232005 0.012190307491 0 -0.11757448316 0.014191200957 0 
-0.11787932366 0.016256280243 0 -0.11818213016 0.018403640017 0 -0.11849938333 0.020624220371 0 
-0.11884461343 0.022931396961 0 -0.1192317009 0.025327924639 0 -0.11967348307 0.027827814221 0 
-0.12018442154 0.030441867188 0 -0.12077889591 0.033187482506 0 -0.12147539109 0.036082498729 0 
-0.12229324877 0.039149504155 0 -0.12325989455 0.042414538562 0 -0.1244052127 0.045906461775 0 
-0.12577357888 0.049663320184 0 -0.12741617858 0.053718727082 0 -0.12940809131 0.058131214231 0 
-0.13184551895 0.062927000225 0 -0.1348567903 0.068203881383 0 -0.1386410892 0.073929607868 0 
-0.14340570569 0.080283053219 0 -0.14960254729 0.08699016273 0 -0.15747393668 0.094397380948 0 
-0.16810749471 0.10140576959 0 -0.18124254048 0.10865349323 0 -0.19942398369 0.11282172054 0 
-0.21922327578 0.11474316567 0 -0.24533107877 0.10842129588 0 -0.26485472918 0.09406375885 0 
-0.28176909685 0.075980089605 0 -0.29230624437 0.055601473898 0 -0.29903563857 0.032733399421 0 
-0.29904201627 0.012109650299 0 -0.11278230697 0.00074975891039 0 -0.11405865848 0.0020505606662 0 
-0.11503924429 0.0035874231253 0 -0.11586701125 0.0050949133001 0 -0.11651694775 0.0067736981437 0 
-0.1170611009 0.0084888571873 0 -0.11750817299 0.010324043222 0 -0.11789689958 0.012213774025 0 
-0.11824401468 0.014194795862 0 -0.11857341975 0.016238061711 0 -0.11890140176 0.018362339586 0 
-0.11924515665 0.020558480173 0 -0.11961910129 0.022839793935 0 -0.12003786862 0.025208700448 0 
-0.12051519006 0.027678662911 0 -0.12106626481 0.030259827152 0 -0.1217065081 0.032968558371 0 
-0.12245520949 0.035821557045 0 -0.1233330369 0.038839660585 0 -0.12436829507 0.042046945542 0 
-0.12559272349 0.045469291508 0 -0.12705145776 0.049141086638 0 -0.12879817188 0.053090814501 0 
-0.13090780377 0.05736952275 0 -0.13347914815 0.061994832009 0 -0.13663685322 0.067047744989 0 
-0.14057868719 0.07248390466 0 -0.14549711347 0.078441686928 0 -0.15181942284 0.084644384682 0 
-0.1597468257 0.091338418424 0 -0.17024219036 0.097515553236 0 -0.18300202489 0.10358647257 0 
-0.20010252297 0.10675437003 0 -0.21853002906 0.10749687254 0 -0.24178797007 0.10123330355 0 
-0.25979325175 0.088166669011 0 -0.27546665072 0.071391664445 0 -0.28545540571 0.05248349905 0 
-0.29186856747 0.03092795983 0 -0.29182356596 0.011469234712 0 -0.11326120794 0.00076352147153 0 
-0.11454644054 0.0020862382371 0 -0.11555501819 0.0036415148061 0 -0.11641012132 0.0051527153701 0 
-0.11709055305 0.0068300166167 0 -0.11766270548 0.0085349967703 0 -0.11813698709 0.010356409475 0 
-0.11855117232 0.012228110805 0 -0.11892314255 0.014188939705 0 -0.11927714944 0.016209829599 0 
-0.11963042617 0.018310189247 0 -0.12000082433 0.020480781794 0 -0.12040361017 0.022734833881 0 
-0.12085412443 0.025074416772 0 -0.12136690319 0.027512427419 0 -0.12195788324 0.030058305711 0 
-0.12264340371 0.03272734955 0 -0.12344349176 0.035535048693 0 -0.12438000739 0.03850043565 0 
-0.12548199296 0.041645497084 0 -0.12678270042 0.044993098825 0 -0.12832778692 0.04857377708 0 
-0.1301727742 0.052410956472 0 -0.13239191473 0.056548047811 0 -0.1350851506 0.060994502157 0 
-0.13837265968 0.065814904869 0 -0.14244769514 0.070954427123 0 -0.14748749137 0.076514057815 0 
-0.15388947725 0.082218505442 0 -0.16181817651 0.088228531182 0 -0.17211233079 0.093626968563 0 
-0.18444614112 0.098647482693 0 -0.20048706234 0.10094407946 0 -0.21761788428 0.10075117648 0 
-0.23841780424 0.094560086727 0 -0.25499901175 0.082586549222 0 -0.26947942376 0.06699808687 0 
-0.27888786793 0.049446258694 0 -0.28494921327 0.029160097241 0 -0.28483992815 0.010836642236 0 
-0.11375988275 0.00077508244431 0 -0.11505315453 0.0021164971404 0 -0.11608704925 0.0036875684746 0 
-0.11696723104 0.005201744847 0 -0.1176763624 0.0068770637736 0 -0.11827524751 0.0085718715563 0 
-0.11877594888 0.010379409418 0 -0.11921513081 0.012232921086 0 -0.11961174756 0.014173164964 0 
-0.11999029666 0.01617106609 0 -0.12036889791 0.018246630207 0 -0.12076599151 0.020390532911 0 
-0.12119763345 0.022615898401 0 -0.12167980522 0.024924427271 0 -0.12222783267 0.027328437194 0 
-0.12285830826 0.02983661741 0 -0.12358840555 0.032463170588 0 -0.12443882972 0.035222295672 0 
-0.1254324466 0.038131199777 0 -0.12659886479 0.04120965302 0 -0.12797261775 0.044477507472 0 
-0.12959952652 0.047961320728 0 -0.13153629005 0.051679555327 0 -0.13385604322 0.055667966604 0 
-0.1366584599 0.059928346425 0 -0.14005856216 0.064509533346 0 -0.14424239099 0.069347821176 0 
-0.14937178791 0.074510388076 0 -0.15581080317 0.07972677052 0 -0.16369153559 0.085086010396 0 
-0.17373304069 0.089759729803 0 -0.18560247123 0.093847483397 0 -0.20061703026 0.09538834542 0 
-0.21652503312 0.094456113875 0 -0.23519223928 0.08835247159 0 -0.25044214725 0.077313408256 0 
-0.26378497481 0.062804125249 0 -0.27259537578 0.046503286809 0 -0.27828025818 0.027439462021 0 
-0.27809736133 0.010216332041 0 -0.11427775025 0.00078468851279 0 -0.11557840556 0.002141719684 0 
-0.11663524806 0.00372599205 0 -0.1175384447 0.0052422136068 0 -0.11827450991 0.0069148624316 0 
-0.11889883876 0.0085993353277 0 -0.11942511052 0.010392761789 0 -0.1198887378 0.012227826752 0 
-0.1203097105 0.014147020876 0 -0.1207126379 0.016121270135 0 -0.12111647427 0.018171122298 0 
-0.12154018879 0.02028715983 0 -0.12200056762 0.022482385859 0 -0.12251419574 0.024758115411 0 
-0.12309710681 0.027126057073 0 -0.12376648188 0.029594123363 0 -0.12454026192 0.032175388187 0 
-0.12543970346 0.034882705659 0 -0.12648850679 0.037731423974 0 -0.12771676481 0.040739029646 0 
-0.12915985286 0.043922346085 0 -0.13086353242 0.047303907573 0 -0.13288503885 0.050897341222 0 
-0.13529589772 0.054730866104 0 -0.13819424808 0.058799169958 0 -0.14168931544 0.063136264682 0 
-0.14595778286 0.067671120167 0 -0.15114614367 0.072441011667 0 -0.15758295357 0.077182985842 0 
-0.16537190974 0.081927500665 0 -0.17511966825 0.085930928588 0 -0.18649724126 0.089194327593 0 
-0.20052628219 0.090082801878 0 -0.21528363228 0.088569507003 0 -0.23208917677 0.082568027079 0 
-0.24609777331 0.072336219251 0 -0.2583630383 0.058811809868 0 -0.26656934619 0.043665148318 0 
-0.27186268568 0.025773860514 0 -0.2715998888 0.0096120070666 0 -0.11481422931 0.00079252402065 0 
-0.1161217466 0.0021622297354 0 -0.11719942838 0.0037571499124 0 -0.11812377721 0.0052743228152 0 
-0.11888507754 0.0069434475154 0 -0.11953354627 0.0086172614247 0 -0.120084472 0.010396207683 0 
-0.12057191879 0.012212472968 0 -0.12101683021 0.014110078104 0 -0.12144386768 0.016059959307 0 
-0.1218727529 0.018083142117 0 -0.12232290208 0.020170111209 0 -0.12281178683 0.022333724424 0 
-0.12335651368 0.024574892595 0 -0.12397377938 0.026904698461 0 -0.12468127906 0.029330242425 0 
-0.12549760938 0.031863451004 0 -0.12644450366 0.034515786916 0 -0.12754632533 0.037300720811 0 
-0.12883341312 0.040233399719 0 -0.13034170866 0.043327663094 0 -0.13211666048 0.046601988375 0 
-0.13421536982 0.050065368414 0 -0.13670730591 0.05373871699 0 -0.13968794048 0.057610213757 0 
-0.14326021075 0.061700150371 0 -0.14758969843 0.065931707621 0 -0.15280775726 0.070316202939 0 
-0.15920673311 0.074600368738 0 -0.16686551273 0.078768104315 0 -0.17628757656 0.082155235112 0 
-0.18715512753 0.084693409503 0 -0.2002441138 0.085021734238 0 -0.21392083168 0.083055429161 0 
-0.22909155488 0.077169984579 0 -0.24194519222 0.067643336952 0 -0.25319522619 0.055020902306 0 
-0.26080104709 0.040939770639 0 -0.26569589972 0.024169394746 0 -0.26534953713 0.0090266568586 0 
-0.11536876857 0.00079872878268 0 -0.11668273062 0.0021783038974 0 -0.11777938902 0.0037813656963 0 
-0.11872317642 0.005298262462 0 -0.11950805038 0.0069628632627 0 -0.12017938495 0.0086255446076 0 
-0.12075398117 0.010389517061 0 -0.12126453966 0.012186531909 0 -0.12173289061 0.014061933383 0 
-0.12218367308 0.015986677259 0 -0.12263730168 0.017982192338 0 -0.1231135726 0.020038865507 0 
-0.12363058329 0.02216937393 0 -0.12420591712 0.024374214932 0 -0.12485685199 0.026663824916 0 
-0.12560150027 0.029044464231 0 -0.1264590621 0.031526897103 0 -0.12745155394 0.034121159464 0 
-0.12860389054 0.036838840693 0 -0.12994647026 0.039692729712 0 -0.13151550293 0.042693719268 0 
-0.13335576653 0.045856300741 0 -0.13552367687 0.049185041338 0 -0.13808627427 0.052693869919 0 
-0.14113533497 0.056365113705 0 -0.14476706088 0.060206614435 0 -0.14913472533 0.064137175679 0 
-0.15435494483 0.068146124482 0 -0.16068407893 0.071991503239 0 -0.16817957163 0.075621388853 0 
-0.1772519201 0.078445143998 0 -0.18759921193 0.080348148942 0 -0.19979599118 0.080198481679 0 
-0.21245959401 0.07788310945 0 -0.22618632019 0.072126321495 0 -0.23796726763 0.063222743571 0 
-0.2482650876 0.051429312676 0 -0.25528159738 0.038332719356 0 -0.25977781415 0.022630624473 0 
-0.25934648514 0.0084626218304 0 -0.11594080925 0.00080341054127 0 -0.11726088822 0.0021901789587 0 
-0.11837484688 0.0037989269476 0 -0.11933652312 0.0053142104298 0 -0.12014338374 0.0069731622934 0 
-0.12083630264 0.0086240973324 0 -0.12143353373 0.01037248224 0 -0.12196642905 0.012149700895 0 
-0.12245762348 0.014002210461 0 -0.12293166667 0.01590099372 0 -0.12340961397 0.017867811024 0 
-0.12391157448 0.019892932847 0 -0.12445621192 0.021988838911 0 -0.12506151199 0.024155588821 0 
-0.12574523687 0.026402957737 0 -0.12652587891 0.028736351058 0 -0.12742307782 0.031165357679 0 
-0.12845911086 0.033698562533 0 -0.12965917587 0.036345694214 0 -0.13105358183 0.03911717236 0 
-0.13267847896 0.042021028697 0 -0.13457772136 0.045067861676 0 -0.13680651784 0.048258069903 0 
-0.1394290179 0.051599033177 0 -0.14253254235 0.055067878217 0 -0.14620625973 0.058661360294 0 
-0.15059027076 0.062295231968 0 -0.15578693151 0.065940693021 0 -0.16201789677 0.069368228316 0 
-0.16932201385 0.072499491274 0 -0.17802754045 0.074811130762 0 -0.18785102665 0.076160386205 0 
-0.19920417666 0.075605757535 0 -0.21091945469 0.073025919497 0 -0.22336362302 0.067409031093 0 
-0.23414978385 0.059062287211 0 -0.24355787039 0.048033438623 0 -0.25000226498 0.035847503692 0 
-0.25410524011 0.021160721779 0 -0.2535892427 0.0079216416925 0 -0.11652979255 0.00080665410496 0 
-0.11785569787 0.002198060276 0 -0.11898548156 0.0038100893144 0 -0.11996361613 0.005322332494 0 
-0.1207909286 0.0069744037464 0 -0.12150416523 0.0086128525436 0 -0.12212296575 0.010344924405 0 
-0.12267734855 0.01210170798 0 -0.12319070101 0.013930566609 0 -0.12368743122 0.015802515671 0 
-0.12418914586 0.01773956418 0 -0.12471624464 0.019731869921 0 -0.12528786063 0.021791666746 0 
-0.12592230737 0.023918574676 0 -0.12663778663 0.026121696457 0 -0.12745307386 0.028405558318 0 
-0.12838813663 0.030778575689 0 -0.12946534157 0.033247876912 0 -0.13071006536 0.035821348429 0 
-0.13215231895 0.038507074118 0 -0.13382789493 0.041310332716 0 -0.1357794553 0.04423796013 0 
-0.13806051016 0.047286491841 0 -0.14073200524 0.050457239151 0 -0.14387612045 0.053722817451 0 
-0.14757476747 0.057070311159 0 -0.15195445716 0.060413647443 0 -0.15710395575 0.063709512353 0 
-0.16321192682 0.066741593182 0 -0.17030137777 0.069413162768 0 -0.1786288619 0.071261897683 0 
-0.18793052435 0.072130694985 0 -0.19848832488 0.071235843003 0 -0.20931710303 0.068460665643 0 
-0.22061619163 0.062993451953 0 -0.23048101366 0.055149808526 0 -0.23906040192 0.044828493148 0 
-0.24495437741 0.033485833555 0 -0.24867394567 0.019761633128 0 -0.248075068 0.0074049313553 0 
-0.11713515222 0.00080852751853 0 -0.11846664548 0.0022021261975 0 -0.119610928 0.0038150807377 0 
-0.12060420215 0.005322787445 0 -0.1214504987 0.0069666542113 0 -0.12218279392 0.0085917580873 0 
-0.12282206118 0.010306688957 0 -0.12339701504 0.012042312883 0 -0.1239317432 0.013846692629 0 
-0.12445047498 0.015690887347 0 -0.12497531623 0.017597069964 0 -0.12552686036 0.019555272534 0 
-0.12612465024 0.021577462554 0 -0.12678728998 0.023662805557 0 -0.12753330171 0.02581971325 0 
-0.12838169932 0.028051832691 0 -0.12935258448 0.03036640957 0 -0.13046841323 0.03276912123 0 
-0.13175445795 0.035266049206 0 -0.13324029744 0.037862997502 0 -0.13496106863 0.040562611073 0 
-0.13695801795 0.04336816445 0 -0.13928249478 0.04627263546 0 -0.14199198782 0.049271825701 0 
-0.14516302943 0.052334517241 0 -0.14887015522 0.055439546704 0 -0.15322618186 0.058500133455 0 
-0.1583070159 0.061461783946 0 -0.16427063942 0.064121827483 0 -0.17112655938 0.066371873021 0 
-0.17906980217 0.067804530263 0 -0.18785618246 0.068258605897 0 -0.19766576588 0.067080825567 0 
-0.20766684413 0.064166940749 0 -0.21793876588 0.05885771662 0 -0.22695125639 0.051473278552 0 
-0.23476088047 0.041808746755 0 -0.24012936652 0.031247895211 0 -0.24347886443 0.018434245139 0 
-0.24279995263 0.006913236808 0 -0.11775628477 0.00080908666132 0 -0.11909317225 0.002202533884 0 
-0.12025075406 0.0038141049445 0 -0.1212579459 0.0053157228976 0 -0.12212181836 0.0069499853998 0 
-0.12287194282 0.0085607850924 0 -0.12353052944 0.010257652961 0 -0.12412508577 0.011971307918 0 
-0.12468032539 0.013750318438 0 -0.12522026896 0.015565792099 0 -0.1257674545 0.017439985648 0 
-0.12634260952 0.019362797961 0 -0.12696565688 0.021345894784 0 -0.12765537202 0.023387977853 0 
-0.12843054533 0.025496765971 0 -0.12931026518 0.027675025165 0 -0.13031479716 0.029928838834 0 
-0.1314664036 0.032262455672 0 -0.13279019296 0.034680210054 0 -0.13431510329 0.037185698748 0 
-0.13607534766 0.039779078215 0 -0.13811053336 0.042460296303 0 -0.14046952128 0.045219101012 0 
-0.14320605993 0.048046384007 0 -0.1463906765 0.050907757133 0 -0.15009054542 0.053775221109 0 
-0.15440502763 0.05656227842 0 -0.1593979001 0.059206269681 0 -0.16519911587 0.061518322676 0 
-0.17180670798 0.063383869827 0 -0.17936371267 0.064444690943 0 -0.187645033 0.064542844892 0 
-0.19675193727 0.063132703304 0 -0.20598104596 0.060126651078 0 -0.21532765031 0.054982326925 0 
-0.22355243564 0.048020876944 0 -0.23064874113 0.038967750967 0 -0.23551888764 0.029132587835 0 
-0.23851421475 0.017178535461 0 -0.2377589494 0.0064469035715 0 -0.11839258671 0.00080837868154 0 
-0.11973468214 0.0021994216368 0 -0.1209044829 0.0038073456381 0 -0.12192447484 0.0053012822755 0 
-0.12280455977 0.0069244764745 0 -0.12357127666 0.0085199195892 0 -0.1242480129 0.010197718628 0 
-0.12486114353 0.011888521723 0 -0.12543596327 0.01364121493 0 -0.12599621713 0.015426964499 0 
-0.12656486034 0.017268026248 0 -0.12716269493 0.019154159352 0 -0.12780989707 0.02109669894 0 
-0.12852542102 0.023093875498 0 -0.12932817638 0.02515271306 0 -0.13023731112 0.027275096625 0 
-0.13127304614 0.029465980828 0 -0.13245740533 0.03172820434 0 -0.13381512463 0.034064434469 0 
-0.13537435234 0.036476150155 0 -0.13716816902 0.03896119073 0 -0.13923428953 0.041516430676 0 
-0.14161881804 0.04412874952 0 -0.14437158406 0.046784728765 0 -0.14755691588 0.049447484314 0 
-0.15123468637 0.052083518356 0 -0.15549121797 0.054607488215 0 -0.16037906706 0.056951232255 0 
-0.16600288451 0.058939609677 0 -0.172351107 0.060456272215 0 -0.17952340841 0.061186764389 0 
-0.18731275201 0.060981463641 0 -0.19576062262 0.059383485466 0 -0.20427043736 0.056323606521 0 
-0.21278034151 0.051349740475 0 -0.22027789056 0.044781059027 0 -0.22671450675 0.036298550665 0 
-0.23111481965 0.027137752622 0 -0.23377367854 0.015993721783 0 -0.23294633627 0.0060059372336 0 
-0.11904340237 0.00080644403351 0 -0.1203905493 0.0021929137874 0 -0.12157159299 0.0037949702237 0 
-0.12260331213 0.0052796029486 0 -0.12349831313 0.0068902140483 0 -0.12428041548 0.0084691699594 0 
-0.12497410923 0.010126821697 0 -0.12560473382 0.011793821119 0 -0.12619808316 0.013519199565 0 
-0.12677767873 0.015274186619 0 -0.12736676633 0.017080960795 0 -0.1279862076 0.018929135054 0 
-0.12865635753 0.02082968317 0 -0.12939624488 0.022780366242 0 -0.13022486866 0.024787509814 0 
-0.13116128743 0.026852132753 0 -0.13222560287 0.028978083283 0 -0.13343948126 0.031166851521 0 
-0.13482713699 0.033419497311 0 -0.13641574979 0.035735521466 0 -0.13823707402 0.038110621274 0 
-0.14032676816 0.040538869798 0 -0.14272792637 0.043004654348 0 -0.14548635483 0.045490864664 0 
-0.14866007864 0.047958750278 0 -0.15230186284 0.050370573997 0 -0.15648561716 0.052642919123 0 
-0.16125357151 0.054704412818 0 -0.16668787599 0.05639340356 0 -0.17276901007 0.057595148683 0 
-0.17956104875 0.058034040034 0 -0.1868737638 0.057571973652 0 -0.1947042048 0.055825274438 0 
-0.20254439116 0.052743222564 0 -0.21029531956 0.047944094986 0 -0.21712200344 0.041742607951 0 
-0.22294962406 0.033793825656 0 -0.22690925002 0.025260370225 0 -0.22925055027 0.014878400601 0 
-0.22835572064 0.0055900593288 0 -0.11970806122 0.00080331857316 0 -0.12106011808 0.0021831232589 0 
-0.12225151062 0.0037771330681 0 -0.1232939586 0.0052508199587 0 -0.12420260906 0.0068472931162 0 
-0.12499888986 0.0084085660055 0 -0.1257083416 0.010044925846 0 -0.12635532022 0.011687113903 0 
-0.12696610391 0.01338413544 0 -0.1275639683 0.015107297339 0 -0.12817238271 0.016878621653 0 
-0.12881220877 0.018687577918 0 -0.12950395048 0.02054473944 0 -0.13026662171 0.022447412834 0 
-0.13111920655 0.024401217699 0 -0.13208061457 0.026406336576 0 -0.13317072392 0.028465544805 0 
-0.13441072404 0.030579036102 0 -0.13582411408 0.032746367157 0 -0.13743706048 0.034965191036 0 
-0.13927972317 0.037229251117 0 -0.14138559997 0.039530131966 0 -0.143794626 0.041850086302 0 
-0.14654846489 0.044168937951 0 -0.1496989429 0.04644665122 0 -0.15329189599 0.048642437905 0 
-0.15738964081 0.050675429404 0 -0.16202495992 0.052472990006 0 -0.16726030409 0.053886581212 0 
-0.17306962609 0.054805606604 0 -0.17948821187 0.054988820106 0 -0.18634131551 0.054311465472 0 
-0.19359381497 0.052450314164 0 -0.20081110299 0.049372222275 0 -0.20787166059 0.044750928879 0 
-0.21408005059 0.038894657046 0 -0.21934640408 0.031446032226 0 -0.22289447486 0.02349674888 0 
-0.22493776679 0.013830665499 0 -0.22398029268 0.0051987608895 0 -0.12038584799 0.00079903472215 0 
-0.12174268067 0.0021701534279 0 -0.1229435876 0.0037539789919 0 -0.12399582565 0.0052150683478 0 
-0.12491691113 0.0067958193831 0 -0.12572617829 0.0083381580189 0 -0.1264501363 0.0099520320073 0 
-0.1271122992 0.011568348855 0 -0.12773935497 0.013235936873 0 -0.12835429609 0.014926194213 0 
-0.12898081541 0.016660911962 0 -0.12963970006 0.018429409713 0 -0.13035154343 0.020241849124 0 
-0.13113527 0.022095073014 0 -0.13200977445 0.02399401553 0 -0.13299374282 0.025938039646 0 
-0.13410668075 0.027928901836 0 -0.13536921144 0.029965566471 0 -0.13680404425 0.032046187669 0 
-0.13843612373 0.034166716039 0 -0.1402939409 0.036319162697 0 -0.1424086839 0.03849292174 0 
-0.14481697977 0.040668483824 0 -0.14755645394 0.042823195457 0 -0.15067273378 0.04491629824 0 
-0.15420512855 0.046905003488 0 -0.15820519626 0.048711530864 0 -0.16269722581 0.050263587385 0 
-0.16772656143 0.051425240934 0 -0.17326198518 0.052091877908 0 -0.17931585014 0.052052553743 0 
-0.18572756648 0.051196683198 0 -0.19243951142 0.049251016229 0 -0.19907781482 0.046198457479 0 
-0.20550899208 0.041756983846 0 -0.2111479789 0.036226727068 0 -0.21589776874 0.029247527942 0 
-0.2190630585 0.021842684597 0 -0.22082807124 0.012848226354 0 -0.21981284022 0.0048313508742 0 
-0.12107601017 0.00079362263205 0 -0.12243749946 0.0021541013848 0 -0.12364715338 0.0037256460637 0 
-0.12470827252 0.0051724840887 0 -0.12564061582 0.0067359101959 0 -0.1264616847 0.0082580214366 0 
-0.12719890475 0.0098481727764 0 -0.12787503004 0.011437520385 0 -0.12851709127 0.013074574992 0 
-0.12914785743 0.014730837196 0 -0.12979115546 0.016427803785 0 -0.13046766818 0.018154643476 0 
-0.13119798899 0.019921083003 0 -0.13200089335 0.02172351256 0 -0.13289512694 0.023566195741 0 
-0.13389906287 0.025447711349 0 -0.13503172994 0.027368843555 0 -0.13631311059 0.029327411205 0 
-0.13776496053 0.031320277601 0 -0.13941091299 0.033341854811 0 -0.14127768576 0.03538262099 0 
-0.14339408278 0.037430111319 0 -0.14579337835 0.039463400841 0 -0.14850915968 0.041457943618 0 
-0.15158112347 0.043372757733 0 -0.15504236519 0.045163989067 0 -0.15893466771 0.046757370234 0 
-0.16327467561 0.048082243651 0 -0.1680932194 0.04901471734 0 -0.17335492373 0.04945737496 0 
-0.17905431986 0.049225948751 0 -0.18504367769 0.04822409153 0 -0.19125036895 0.046219978482 0 
-0.19735090435 0.043210715055 0 -0.20320728421 0.038950037211 0 -0.20832230151 0.033728718758 0 
-0.21259728074 0.027190661058 0 -0.21540778875 0.020293597132 0 -0.21691411734 0.011928500608 0 
-0.2158459425 0.0044869980775 0 -0.121777758 0.00078711117385 0 -0.1231437847 0.0021350593306 0 
-0.12436146289 0.0036922688596 0 -0.12543059886 0.0051232087426 0 -0.1263730526 0.0066676968709 0 
-0.12720474601 0.0081682568416 0 -0.12795394659 0.009733418934 0 -0.12864275277 0.011294669472 0 
-0.12929853797 0.012900074944 0 -0.12994378805 0.014521253295 0 -0.13060243428 0.016179343686 0 
-0.13129502535 0.017863370478 0 -0.13204208016 0.019582606852 0 -0.13286218047 0.021333007142 0 
-0.13377383351 0.023118175566 0 -0.13479498029 0.024935951456 0 -0.13594417274 0.02678620629 0 
-0.13724058867 0.028665697202 0 -0.13870495558 0.030570117757 0 -0.14035953581 0.0324925147 0 
-0.14222915471 0.034422054887 0 -0.14434015751 0.036344710737 0 -0.14672252536 0.038238503039 0 
-0.14940583706 0.040077511221 0 -0.15242418647 0.041821006685 0 -0.15580487251 0.043424878269 0 
-0.15958079696 0.044818688184 0 -0.16376195848 0.04593443498 0 -0.16836683452 0.046659629792 0 
-0.17335702479 0.046904779971 0 -0.17871338129 0.046509079635 0 -0.18429987133 0.045389954001 0 
-0.19003462791 0.043349999934 0 -0.19563604891 0.040398593992 0 -0.20096667111 0.036318749189 0 
-0.20559993386 0.031390942633 0 -0.20943900943 0.025267846882 0 -0.21192166209 0.018844664097 0 
-0.21318846941 0.011068704538 0 -0.21207207441 0.0041647683829 0 -0.12249024957 0.00077952857828 0 
-0.12386070192 0.0021131171379 0 -0.12508572638 0.0036539805587 0 -0.12616203725 0.0050673889928 0 
-0.1271134764 0.0065913265571 0 -0.12795463204 0.0080689908937 0 -0.12871453166 0.0096078785136 0 
-0.12941472232 0.011139889248 0 -0.13008284569 0.012712524273 0 -0.13074116409 0.014297538437 0 
-0.13141363859 0.01591566205 0 -0.13212065399 0.017555776983 0 -0.13288258016 0.019226690754 0 
-0.13371777534 0.020923938602 0 -0.13464440405 0.022650493309 0 -0.13567996025 0.024403497577 0 
-0.13684234023 0.026181971654 0 -0.13814991713 0.027981707826 0 -0.13962228596 0.029797356576 0 
-0.14128024876 0.031620774418 0 -0.14314667881 0.033440031111 0 -0.14524550736 0.035239841789 0 
-0.1476033926 0.036997504532 0 -0.15024609864 0.038686219603 0 -0.15320241451 0.040265902877 0 
-0.15649428964 0.041692893952 0 -0.16014671326 0.042900815606 0 -0.1641638726 0.04382506758 0 
-0.16855402291 0.044363904744 0 -0.17327654362 0.044436104596 0 -0.17830218375 0.043901454657 0 
-0.18350550532 0.04269034788 0 -0.18879973888 0.040634091944 0 -0.19393822551 0.037752389908 0 
-0.19878746569 0.033852566034 0 -0.20297807455 0.029204115272 0 -0.20641739666 0.023471629247 0 
-0.20859795809 0.017490914091 0 -0.20964373648 0.010265923105 0 -0.20848363638 0.0038636557292 0 
-0.12321259826 0.00077090301784 0 -0.12458737195 0.0020883635152 0 -0.12581910193 0.0036109162029 0 
-0.1269017756 0.0050051803701 0 -0.12786109746 0.0065069631673 0 -0.12871053815 0.0079603819177 0 
-0.1294798404 0.0094717023894 0 -0.13019008934 0.010973320343 0 -0.13086913526 0.012512069196 0 
-0.13153903186 0.014059862122 0 -0.13222374022 0.015636969358 0 -0.1329434216 0.017232138664 0 
-0.13371828198 0.018853707239 0 -0.13456635177 0.020496807992 0 -0.13550542295 0.022163813934 0 
-0.13655243814 0.023851215839 0 -0.13772462308 0.02555726096 0 -0.13903942704 0.027276873589 0 
-0.14051528275 0.029003787786 0 -0.14217145741 0.030728848651 0 -0.14402887225 0.032439235598 0 
-0.14610899985 0.034118711948 0 -0.14843532443 0.035744149238 0 -0.15102992952 0.037288323045 0 
-0.15391667187 0.038712143898 0 -0.15711261332 0.03997297585 0 -0.16063581407 0.041008643806 0 
-0.16448539495 0.041758503765 0 -0.16866131127 0.04213084653 0 -0.17312146723 0.042052764446 0 
-0.1778293401 0.041402108967 0 -0.18266917765 0.040121234953 0 -0.18755248189 0.038065463305 0 
-0.19226187468 0.035262998194 0 -0.19667001069 0.031541611999 0 -0.20045422018 0.027159363031 0 
-0.20352728665 0.021794738248 0 -0.20543013513 0.016227314249 0 -0.20627261698 0.0095171732828 0 
-0.20507308841 0.0035826121457 0 -0.12394388765 0.00076126353815 0 -0.12532287836 0.0020608878694 0 
-0.12656067312 0.0035632143263 0 -0.12764893472 0.0049367495812 0 -0.12861506641 0.0064147915691 0 
-0.12947161496 0.0078426152468 0 -0.13024900854 0.0093250796199 0 -0.13096792996 0.010795158334 0 
-0.13165645301 0.012298923917 0 -0.1323363781 0.013808467425 0 -0.13303162158 0.015343559906 0 
-0.1337621361 0.016892828047 0 -0.13454788923 0.018464129418 0 -0.13540653884 0.020052228123 0 
-0.13635542989 0.021658921614 0 -0.13741092384 0.02328011021 0 -0.13858947158 0.024913338944 0 
-0.13990756869 0.026552764699 0 -0.14138242602 0.028191339225 0 -0.14303176105 0.029819071293 0 
-0.14487449825 0.031422454864 0 -0.14692977071 0.03298458457 0 -0.14921791852 0.034482188523 0 
-0.15175761282 0.035888001323 0 -0.15456816554 0.03716423735 0 -0.15766218305 0.038269747049 0 
-0.16105172038 0.039146643132 0 -0.16473162174 0.039738561958 0 -0.1686951369 0.039963148534 0 
-0.17289936543 0.039755623788 0 -0.17730288208 0.039009671658 0 -0.18179871142 0.037678476423 0 
-0.18629896641 0.035637523979 0 -0.19061093032 0.032921858132 0 -0.19461461902 0.029376640916 0 
-0.19802597165 0.025248210877 0 -0.2007638067 0.020230123773 0 -0.20241191983 0.015048845671 0 
-0.20306788385 0.0088194571435 0 -0.20183296502 0.0033205668442 0 -0.12468313426 0.00075064005796 0 
-0.12606623769 0.0020307814702 0 -0.12730950117 0.0035110190511 0 -0.12840256095 0.0048622754402 0 
-0.12937445939 0.0063150180504 0 -0.1302369386 0.0077159120701 0 -0.1310211122 0.0091682458296 0 
-0.13174732029 0.010605655611 0 -0.13244378567 0.012073365971 0 -0.13313214481 0.013543675654 0 
-0.13383619487 0.015035816468 0 -0.1345756501 0.016538312659 0 -0.13537016511 0.018058542162 0 
-0.13623702526 0.019590929151 0 -0.13719305396 0.021136729047 0 -0.13825395703 0.022691311315 0 
-0.1394354254 0.02425159514 0 -0.14075289667 0.025811078027 0 -0.14222234488 0.027362056077 0 
-0.14385992289 0.028893876821 0 -0.14568260312 0.030392551795 0 -0.14770719409 0.03184075281 0 
-0.14995111525 0.0332153216 0 -0.1524297744 0.034489311278 0 -0.15515838563 0.035626474768 0 
-0.15814559162 0.036587517709 0 -0.16139824688 0.037318840623 0 -0.16490767896 0.037768553942 0 
-0.16866180301 0.037862960249 0 -0.17261753976 0.037545070052 0 -0.17673034966 0.036722417921 0 
-0.18090130389 0.035357866436 0 -0.18504475057 0.03334389627 0 -0.18898884952 0.03072088398 0 
-0.19262158871 0.027348944917 0 -0.1956910789 0.02346258983 0 -0.19812235236 0.018770989031 0 
-0.19953723252 0.013950562105 0 -0.20002250373 0.0081697991118 0 -0.19875591993 0.0030764474068 0 
-0.12542933226 0.00073906424223 0 -0.12681643665 0.0019981395453 0 -0.12806460261 0.0034544828814 0 
-0.12916170061 0.0047819521278 0 -0.13013830781 0.0062078707851 0 -0.13100557029 0.0075805261731 0 
-0.13179518282 0.0090014804155 0 -0.13252723217 0.010405117646 0 -0.13323011994 0.011835741811 0 
-0.13392524421 0.013265882619 0 -0.13463631272 0.014714210294 0 -0.13538272679 0.016169156879 0 
-0.13618384302 0.01763763465 0 -0.13705646992 0.019113749266 0 -0.13801690936 0.020598260686 0 
-0.13908018172 0.02208607085 0 -0.14026109874 0.023573542014 0 -0.14157408476 0.025053627789 0 
-0.14303381741 0.026518093422 0 -0.14465492964 0.027955790982 0 -0.14645244181 0.029352430254 0 
-0.14844094217 0.030690500513 0 -0.15063509345 0.03194719553 0 -0.15304733813 0.033096171916 0 
-0.15568915009 0.034102912992 0 -0.15856568515 0.034930251539 0 -0.16167937219 0.035528831184 0 
-0.16501867771 0.035851296037 0 -0.16856744885 0.035831924528 0 -0.17228284478 0.03542104736 0 
-0.1761187166 0.034538332373 0 -0.17998348176 0.033155161887 0 -0.18379478157 0.031178398058 0 
-0.1873986572 0.028652418405 0 -0.19069112837 0.025450335816 0 -0.19344738126 0.021794822067 0 
-0.19559849799 0.017410811037 0 -0.19680021703 0.012927632779 0 -0.1971296072 0.0075652846135 0 
-0.1958348453 0.0028491925914 0 -0.12618142366 0.00072656973498 0 -0.12757240236 0.0019630608149 0 
-0.12882490456 0.0033937669359 0 -0.12992528081 0.0046959887259 0 -0.1309055835 0.0060936054215 0 
-0.13177645206 0.0074367458001 0 -0.13257017732 0.0088251093403 0 -0.13330663741 0.010193909518 0 
-0.13401436806 0.01158646401 0 -0.13471455872 0.012975565158 0 -0.13543079793 0.014379297383 0 
-0.13618215919 0.015786023811 0 -0.13698765635 0.01720219478 0 -0.13786360621 0.01862164028 0 
-0.13882569969 0.020044662058 0 -0.13988825679 0.021465754136 0 -0.1410652101 0.022880809382 0 
-0.14236994088 0.02428233251 0 -0.14381580055 0.025661690161 0 -0.14541591704 0.027007389814 0 
-0.14718347788 0.028305020183 0 -0.14913092554 0.029537100345 0 -0.15127037466 0.030681366101 0 
-0.15361151099 0.031712323427 0 -0.15616248548 0.032597344369 0 -0.15892545879 0.033301573247 0 
-0.16189914942 0.033779796213 0 -0.16506971419 0.033989142627 0 -0.16841802001 0.033871207386 0 
-0.17190180719 0.033383119851 0 -0.1754744947 0.032455150038 0 -0.17905122042 0.031066099182 0 
-0.18255358934 0.029135039076 0 -0.18584297597 0.026709202677 0 -0.18882331252 0.023673083633 0 
-0.19129276276 0.020237622783 0 -0.19318807125 0.016143353656 0 -0.19419522583 0.011975375004 0 
-0.19438253343 0.0070030810311 0 -0.19306276739 0.002637765836 0 -0.12693828344 0.00071319250856 0 
-0.12833304703 0.0019256500527 0 -0.12958930433 0.0033290439751 0 -0.13069224358 0.0046046138741 0 
-0.13167519867 0.0059725022875 0 -0.13254852593 0.0072848964483 0 -0.1333450228 0.0086395042017 0 
-0.13408444822 0.0099724512547 0 -0.13479542732 0.011326013133 0 -0.13549898565 0.012673277408 0 
-0.13621850312 0.01403172221 0 -0.136972785 0.015389668755 0 -0.13778039813 0.016753118485 0 
-0.13865716755 0.018115660176 0 -0.13961817324 0.019477182999 0 -0.14067697525 0.020831834525 0 
-0.1418466121 0.022175122052 0 -0.14313937724 0.023499198258 0 -0.14456740022 0.02479515411 0 
-0.14614227414 0.026051301509 0 -0.1478754431 0.027253257111 0 -0.14977733791 0.028383763507 0 
-0.15185768902 0.029421269894 0 -0.15412372351 0.030341332778 0 -0.15658068657 0.03111329861 0 
-0.15922810137 0.031704757363 0 -0.16206169128 0.032074499875 0 -0.16506582499 0.032184008509 0 
-0.16821922362 0.031981561333 0 -0.17148059607 0.031430512667 0 -0.17480370402 0.030470399186 0 
-0.17810992897 0.029086416587 0 -0.18132518232 0.027208030224 0 -0.18432410061 0.024884343147 0 
-0.18701812625 0.022009896114 0 -0.18922512233 0.018784087151 0 -0.19088701904 0.014962680638 0 
-0.1917168498 0.011089289561 0 -0.19177486002 0.0064804591238 0 -0.19043299556 0.0024411624763 0 
-0.12769879401 0.00069897103822 0 -0.12909720838 0.0018860182026 0 -0.13035669923 0.0032604981679 0 
-0.13146144152 0.0045080739073 0 -0.13244606555 0.0058448691852 0 -0.1333206892 0.0071253413334 0 
-0.13411861658 0.0084450859576 0 -0.13485954702 0.0097412234172 0 -0.13557216525 0.011054938659 0 
-0.1362773329 0.012359648012 0 -0.13699826598 0.013672214001 0 -0.13775336742 0.014980939217 0 
-0.13856084645 0.016291392967 0 -0.13943596184 0.017596963793 0 -0.14039315283 0.018897170201 0 
-0.14144520462 0.020185880363 0 -0.14260424674 0.021458290517 0 -0.14388152957 0.022706305608 0 
-0.14528790116 0.02392084524 0 -0.14683356881 0.025090163574 0 -0.14852824807 0.026200050488 0 
-0.15038053691 0.027233630419 0 -0.15239802003 0.028170209378 0 -0.1545856446 0.02898654528 0 
-0.15694616735 0.029654026031 0 -0.15947690606 0.030142741278 0 -0.16217114031 0.030415309593 0 
-0.16501189768 0.030437396839 0 -0.16797654331 0.030163342133 0 -0.17102496326 0.029562152922 0 
-0.17411193252 0.028581447899 0 -0.17716452479 0.027211870998 0 -0.18011315167 0.025391774252 0 
-0.18284395337 0.023171288893 0 -0.18527543545 0.020453890786 0 -0.18724243343 0.017427675426 0 
-0.18869145215 0.013863158412 0 -0.18935982883 0.010265070014 0 -0.1893003583 0.0059948065318 0 
-0.18793904781 0.0022584171966 0 -0.12846174836 0.00068394676782 0 -0.12986372411 0.0018442827277 0 
-0.13112588227 0.0031883269548 0 -0.13223172724 0.0044066351838 0 -0.13321700692 0.0057110423222 0 
-0.13409179449 0.0069584790617 0 -0.13488982618 0.0082423202693 0 -0.13563078642 0.0095007615164 0 
-0.13634343445 0.010773855262 0 -0.13704846799 0.012035382912 0 -0.13776889443 0.013301583938 0 
-0.13852277398 0.014560770243 0 -0.13932785392 0.015818100423 0 -0.14019884169 0.017066799104 0 
-0.14114952087 0.018306065351 0 -0.1421918869 0.019529549405 0 -0.14333719015 0.020732207224 0 
-0.14459560812 0.021905791014 0 -0.14597678185 0.023041153327 0 -0.14748956263 0.024126615375 0 
-0.1491420716 0.025148263201 0 -0.1509411782 0.02608974278 0 -0.15289254487 0.026931328699 0 
-0.15499913692 0.027651092038 0 -0.15726155043 0.028222491965 0 -0.15967525542 0.028618115932 0 
-0.16223159432 0.028804225847 0 -0.16491274536 0.02875042893 0 -0.16769522429 0.028416562825 0 
-0.17054031789 0.027776703238 0 -0.17340429127 0.026785520837 0 -0.17621943355 0.025438250974 0 
-0.17892067134 0.023680860177 0 -0.18140418828 0.02156381309 0 -0.1835949719 0.018998561427 0 
-0.18534259498 0.016162214801 0 -0.18659763038 0.012839456089 0 -0.18711917102 0.0094986194745 0 
-0.18695308268 0.0055436370894 0 -0.18557472527 0.0020886079874 0 -0.12922595441 0.0006681640516 0 
-0.13063134253 0.0018005686579 0 -0.13189566135 0.0031127412803 0 -0.13300186396 0.0043005850166 0 
-0.13398683071 0.0055713872425 0 -0.1348606348 0.0067847473547 0 -0.1356574595 0.0080317202955 0 
-0.13639698923 0.0092516578734 0 -0.13710807264 0.010483442806 0 -0.13781122863 0.011701258831 0 
-0.13852924109 0.012920721434 0 -0.13927984238 0.014130181633 0 -0.14008028805 0.015334406868 0 
-0.14094471931 0.016526503488 0 -0.14188626409 0.017705388367 0 -0.14291612804 0.018864564598 0 
-0.14404465258 0.019998814911 0 -0.14528100193 0.021099826321 0 -0.14663368464 0.022158483043 0 
-0.14811019599 0.023163275793 0 -0.14971724153 0.024100698531 0 -0.15146009624 0.024955030531 0 
-0.15334266424 0.025707602501 0 -0.15536622703 0.026337875053 0 -0.15752953291 0.026821371168 0 
-0.15982654691 0.027133142576 0 -0.16224715114 0.027242878452 0 -0.16477297246 0.027123874053 0 
-0.16738022864 0.026740919799 0 -0.17003174126 0.026072606444 0 -0.17268548906 0.025079747662 0 
-0.17527869344 0.023761397228 0 -0.17775054276 0.022070072591 0 -0.18000614643 0.020055990666 0 
-0.18197633326 0.017637770623 0 -0.18352356553 0.014981877059 0 -0.18460193276 0.011886542663 0 
-0.18499001861 0.0087860561907 0 -0.18472729623 0.0051245945506 0 -0.18333405256 0.0019308590563 0 
-0.12999016047 0.00065167056164 0 -0.13139884174 0.0017550088232 0 -0.13266478479 0.0030339667574 0 
-0.13377065957 0.0041902307421 0 -0.13475434482 0.0054262964986 0 -0.13562603295 0.0066046197899 0 
-0.13642032444 0.0078138457611 0 -0.13715699315 0.0089945560321 0 -0.13786490262 0.010184440762 0 
-0.13856445253 0.011358120479 0 -0.13927818835 0.012530589476 0 -0.14002345502 0.01369026769 0 
-0.14081707597 0.01484155748 0 -0.14167259634 0.015977483243 0 -0.1426024437 0.017096733674 0 
-0.14361709356 0.018192712218 0 -0.14472597837 0.019260104746 0 -0.14593729377 0.020290611312 0 
-0.14725841582 0.021275227889 0 -0.14869563282 0.022202719003 0 -0.15025430918 0.023060070351 0 
-0.15193830431 0.023832287639 0 -0.15374997258 0.024501815438 0 -0.15568909049 0.025049556047 0 
-0.15775293112 0.025453055277 0 -0.1599342227 0.02568975836 0 -0.16222181916 0.025732563809 0 
-0.16459707916 0.025558177382 0 -0.16703628004 0.02513583377 0 -0.16950388253 0.024448113516 0 
-0.17195986211 0.023461176082 0 -0.17434585094 0.022177210078 0 -0.17660525441 0.020554384217 0 
-0.17865091562 0.018642192706 0 -0.1804190129 0.016365723684 0 -0.18178328872 0.013881172054 0 
-0.18270081282 0.010999681428 0 -0.18296776712 0.0081237172708 0 -0.18261753023 0.0047354581766 0 
-0.18121135235 0.0017843429232 0 -0.13075309992 0.00063451682217 0 -0.13216494024 0.0017077435041 0 
-0.13343198597 0.0029522427358 0 -0.13453683257 0.0040759011172 0 -0.13551826775 0.0052761919796 0 
-0.13638675213 0.006418606732 0 -0.13717724383 0.0075892987661 0 -0.137909621 0.0087301544845 0 
-0.13861277699 0.0098776491359 0 -0.13930702209 0.011006877758 0 -0.14001461864 0.012132219039 0 
-0.14075256884 0.013242194429 0 -0.14153720438 0.014340864494 0 -0.14238151908 0.015421215445 0 
-0.14329724014 0.016481745988 0 -0.14429408312 0.017515823245 0 -0.14538064599 0.018518095836 0 
-0.14656415582 0.019480345771 0 -0.14785094559 0.020393762738 0 -0.14924620092 0.021247459576 0 
-0.15075401962 0.022028991953 0 -0.15237699449 0.022724160925 0 -0.15411615372 0.023316560313 0 
-0.15597000718 0.023788549006 0 -0.15793457627 0.02411964722 0 -0.16000171006 0.024289589375 0 
-0.16215948761 0.024274259806 0 -0.16438931227 0.024053482339 0 -0.16666778922 0.023600477725 0 
-0.16896113753 0.022901315242 0 -0.17123132944 0.021926799789 0 -0.17342413962 0.020681664348 0 
-0.17548689246 0.019128954038 0 -0.17733933032 0.017317065969 0 -0.17892237008 0.015176951885 0 
-0.18011970818 0.012854935601 0 -0.18089088798 0.010174421594 0 -0.18104793131 0.0075081549585 0 
-0.18061853945 0.0043741380796 0 -0.1792011559 0.0016482799547 0 -0.13151349127 0.00061675684992 0 
-0.13292835653 0.0016589210136 0 -0.13419598341 0.0028678227682 0 -0.13529911637 0.0039579439908 0 
-0.13627739251 0.0051215216517 0 -0.13714157045 0.0062272511423 0 -0.13792698085 0.0073587219231 0 
-0.13865366578 0.0084591973573 0 -0.13935053349 0.0095639191568 0 -0.14003778994 0.01064849738 0 
-0.14073745906 0.011726700701 0 -0.14146617055 0.012787186541 0 -0.14223976433 0.013833700679 0 
-0.14307065308 0.014859226532 0 -0.14396992326 0.015862120315 0 -0.14494654536 0.016835758463 0 
-0.146008268 0.01777481474 0 -0.14716145396 0.018671218306 0 -0.14841145277 0.019516414031 0 
-0.14976237714 0.020299935713 0 -0.15121723711 0.021009957418 0 -0.1527775079 0.021633133292 0 
-0.15444305539 0.022154223174 0 -0.15621134639 0.022557031363 0 -0.158077389 0.022822976112 0 
-0.16003239155 0.022933969274 0 -0.16206397116 0.022868644446 0 -0.16415375471 0.022609669715 0 
-0.16627895832 0.022133810446 0 -0.16840748489 0.021430168301 0 -0.17050343752 0.020473586395 0 
-0.17251640558 0.019270813093 0 -0.17439728975 0.01778913103 0 -0.17607201636 0.016075529158 0 
-0.17748567462 0.014066302218 0 -0.17853076756 0.011898311786 0 -0.17916887999 0.0094065899029 0 
-0.17922624946 0.0069361343049 0 -0.17872531712 0.0040386775509 0 -0.17729830742 0.001521938364 0 
-0.13227003813 0.00059844745556 0 -0.13368776441 0.001608696999 0 -0.13495548069 0.0027809736785 0 
-0.13605621457 0.0038367272355 0 -0.13703042269 0.0049627604894 0 -0.13788923621 0.0060311295092 0 
-0.13866832852 0.0071227969602 0 -0.1393879652 0.0081824725494 0 -0.1400770396 0.0092441532761 0 
-0.14075569808 0.010283998214 0 -0.14144569635 0.011315181851 0 -0.14216329157 0.012326525524 0 
-0.14292384684 0.013321486302 0 -0.14373922348 0.014293087646 0 -0.14461988211 0.015239576809 0 
-0.14557401836 0.016154397279 0 -0.14660862088 0.017032289878 0 -0.1477292031 0.017865389585 0 
-0.14894020557 0.018645454198 0 -0.15024480224 0.019362488762 0 -0.15164501965 0.020005334169 0 
-0.15314131975 0.020561521873 0 -0.15473262966 0.021016977727 0 -0.1564155221 0.021356927231 0 
-0.15818426013 0.021564599127 0 -0.16002959013 0.021623946726 0 -0.16193893552 0.021516127512 0 
-0.16389429569 0.02122637257 0 -0.16587364674 0.02073459886 0 -0.16784663498 0.020032521337 0 
-0.1697794497 0.019098486751 0 -0.17162513733 0.017940808088 0 -0.17333799601 0.016530444846 0 
-0.17484939098 0.014912759885 0 -0.17610809207 0.013028917834 0 -0.17701439559 0.01100674551 0 
-0.17753155529 0.0086922785267 0 -0.17749862373 0.0064046280459 0 -0.17693309486 0.003727245843 0 
-0.17549782991 0.0014046335127 0 -0.13302141428 0.00057964859297 0 -0.13444189727 0.0015572343254 0 
-0.13570919633 0.0026919760276 0 -0.13680687547 0.0037126364186 0 -0.1377761066 0.004800405819 0 
-0.13862851262 0.0058308467269 0 -0.13940010965 0.0068822414614 0 -0.14011135697 0.0079008089378 0 
-0.14079120755 0.0089192949235 0 -0.14145970345 0.0099144456908 0 -0.14213833213 0.01089885179 0 
-0.14284303784 0.011861531995 0 -0.14358869195 0.012805681676 0 -0.14438658953 0.013724397868 0 
-0.14524656534 0.014615859836 0 -0.14617614448 0.015473616309 0 -0.14718155563 0.016292525455 0 
-0.14826752245 0.017064971849 0 -0.14943765104 0.017783077434 0 -0.15069426596 0.018437353894 0 
-0.15203851461 0.019017342478 0 -0.15347002447 0.019511459395 0 -0.15498688817 0.019906789064 0 
-0.156584993 0.020189926028 0 -0.15825808048 0.020345814526 0 -0.15999655426 0.020360305905 0 
-0.16178789735 0.020216863602 0 -0.16361457109 0.019903009757 0 -0.16545547545 0.019401451573 0 
-0.16728195548 0.01870614104 0 -0.16906222701 0.017798459157 0 -0.17075255513 0.01668789424 0 
-0.17231029272 0.015348614193 0 -0.17367164791 0.0138241807 0 -0.17478868365 0.012060225941 0 
-0.17556855083 0.010175962932 0 -0.17597582936 0.0080278348178 0 -0.17586115003 0.0059108072892 0 
-0.17523729801 0.0034381363075 0 -0.17379504442 0.001295725815 0 -0.13376636803 0.00056042266078 0 
-0.13518941402 0.00150470261 0 -0.13645581901 0.0026011215523 0 -0.13754980266 0.0035860741045 0 
-0.13851319253 0.0046349773183 0 -0.13935820758 0.005627034232 0 -0.14012113214 0.0066378018819 0 
-0.14082272351 0.0076150679961 0 -0.14149194956 0.0085903247818 0 -0.14214877784 0.0095409397036 0 
-0.14281447232 0.010478937998 0 -0.1435045898 0.011393561959 0 -0.1442335695 0.012287772261 0 
-0.14501217008 0.013154773042 0 -0.14584960043 0.01399271097 0 -0.14675273001 0.01479527913 0 
-0.14772710204 0.015557489358 0 -0.14877671003 0.01627202332 0 -0.14990438521 0.01693139039 0 
-0.15111169219 0.017526647076 0 -0.15239903331 0.018048048019 0 -0.15376530588 0.018484897912 0 
-0.15520791709 0.018825402483 0 -0.1567222625 0.019057476893 0 -0.15830166638 0.019167669117 0 
-0.15993644297 0.019143585116 0 -0.16161419451 0.018970774487 0 -0.16331803799 0.018638806418 0 
-0.16502781212 0.018132841215 0 -0.16671653092 0.017448730767 0 -0.16835437715 0.01657048054 0 
-0.16990055144 0.015508424491 0 -0.17131522298 0.01423953753 0 -0.17253887653 0.01280545909 0 
-0.17352642119 0.01115592476 0 -0.17419117689 0.0094019640237 0 -0.17449869215 0.0074098478071 0 
-0.17431002855 0.0054520340636 0 -0.17363360524 0.0031697591767 0 -0.17218545079 0.0011946193408 0 
-0.13450355828 0.00054083479336 0 -0.13592903316 0.0014512770576 0 -0.13719405234 0.002508712234 0 
-0.13828371465 0.0034574563615 0 -0.13924044371 0.0044670128264 0 -0.1400770843 0.0054203453474 0 
-0.14083024859 0.0063902512193 0 -0.14152097702 0.0073261400685 0 -0.14217823744 0.008258253336 0 
-0.1428219974 0.0091646136716 0 -0.14347322285 0.010056693107 0 -0.14414720237 0.010923991911 0 
-0.14485785365 0.011769256555 0 -0.14561547339 0.012585833669 0 -0.14642865956 0.013371864334 0 
-0.14730368555 0.014121220447 0 -0.14824539423 0.014829103835 0 -0.14925715327 0.015488519333 0 
-0.15034107864 0.016092397273 0 -0.1514981091 0.016632353887 0 -0.15272793174 0.017099358141 0 
-0.15402887762 0.017483595759 0 -0.15539783239 0.017774354666 0 -0.15682978928 0.017960799858 0 
-0.15831781924 0.018030973151 0 -0.15985228121 0.017974087968 0 -0.16142103076 0.017777580768 0 
-0.16300790012 0.017432820052 0 -0.1645937264 0.016927128658 0 -0.16615314782 0.016257949173 0 
-0.1676582098 0.015411558561 0 -0.16907078028 0.014398862608 0 -0.17035357654 0.013199293055 0 
-0.17145094275 0.011852488853 0 -0.1723202467 0.010311970487 0 -0.17288024724 0.008681002073 0 
-0.17309723794 0.0068351351656 0 -0.17284166813 0.0050258520059 0 -0.17211787403 0.0029206366744 0 
-0.17066481709 0.0011007597204 0 -0.13523174822 0.0005209519295 0 -0.13665947318 0.0013971378794 0 
-0.13792265952 0.0024150596 0 -0.13900738955 0.0033272120636 0 -0.13995665312 0.0042970655486 0 
-0.14078401029 0.0052114524879 0 -0.14152632654 0.0061403820291 0 -0.14220502973 0.0070349373855 0 
-0.14284910262 0.0079241124913 0 -0.14347845316 0.0087866168469 0 -0.14411383867 0.009633387439 0 
-0.14477019012 0.010454207659 0 -0.14546103776 0.011251637712 0 -0.14619614184 0.012019188143 0 
-0.1469835788 0.012755027972 0 -0.14782899618 0.013453233987 0 -0.14873668551 0.014109225012 0 
-0.14970935881 0.014716354199 0 -0.15074856579 0.015267988667 0 -0.15185461938 0.015756316483 0 
-0.15302667022 0.016173014417 0 -0.15426257253 0.016509125009 0 -0.15555876493 0.016754971817 0 
-0.15691001713 0.016900893301 0 -0.15830925107 0.016936315224 0 -0.15974697471 0.016851911321 0 
-0.16121141613 0.016636805609 0 -0.16268715262 0.016283957288 0 -0.16415606439 0.015782574192 0 
-0.16559432447 0.015131425112 0 -0.16697572172 0.014318748377 0 -0.16826462746 0.013355787843 0 
-0.16942597926 0.012224136852 0 -0.17040760815 0.010961387306 0 -0.17116898298 0.0095245633274 0 
-0.1716337204 0.00800957717 0 -0.17176863551 0.0063007334247 0 -0.17145259678 0.0046299761161 0 
-0.17068618536 0.0026893957984 0 -0.16922909021 0.0010136316996 0 -0.13594967127 0.00050084287068 0 
-0.13737949729 0.0013424692443 0 -0.13864038885 0.0023204816971 0 -0.13971960545 0.0031957791653 0 
-0.14066062868 0.0041257017292 0 -0.14147782326 0.0050010411069 0 -0.14220832288 0.0058890036307 0 
-0.14287391305 0.006742386613 0 -0.14350362122 0.0075889485888 0 -0.14411732554 0.0084081115201 0 
-0.14473557472 0.0092102969065 0 -0.14537298679 0.0099855968729 0 -0.14604265988 0.010736404918 0 
-0.1467539072 0.01145642437 0 -0.14751423895 0.012143870816 0 -0.14832881093 0.012793056667 0 
-0.14920133352 0.013399631716 0 -0.1501339674 0.013957320713 0 -0.15112774074 0.014459934086 0 
-0.15218244493 0.014900230803 0 -0.15329678357 0.015270587057 0 -0.15446819365 0.015562867746 0 
-0.15569286048 0.015768375248 0 -0.15696533024 0.01587854512 0 -0.15827858448 0.015884073451 0 
-0.15962330997 0.015776949003 0 -0.16098819673 0.015547814779 0 -0.16235858202 0.015191001818 0 
-0.16371738911 0.014697370119 0 -0.16504229605 0.014066779986 0 -0.16630870104 0.013289160095 0 
-0.16748322546 0.012375896797 0 -0.16853287816 0.011310494505 0 -0.1694085151 0.010128484108 0 
-0.17007145286 0.0087901372463 0 -0.17044961452 0.0073844171129 0 -0.17051014304 0.0058038812131 0 
-0.17013952136 0.0042622820474 0 -0.16933476925 0.0024747638963 0 -0.16787441075 0.0009327569278 0 
-0.13665613532 0.00048057758249 0 -0.13808788359 0.0012874581153 0 -0.13934603333 0.0022253016941 0 
-0.14041918516 0.0030636019073 0 -0.14135125279 0.0039534941316 0 -0.14215745032 0.0047898055054 0 
-0.14287517965 0.0056369318627 0 -0.14352665842 0.0064494223334 0 -0.14414091408 0.0072538116947 0 
-0.1447378546 0.0080302609131 0 -0.14533779025 0.0087886946276 0 -0.14595505595 0.0095195341855 0 
-0.14660236239 0.010225026868 0 -0.14728854597 0.010899093002 0 -0.14802066982 0.011540015228 0 
-0.14880333841 0.012142355554 0 -0.14963980019 0.012702017091 0 -0.15053169429 0.013213101774 0 
-0.15147958696 0.013669868931 0 -0.15248283744 0.014065642841 0 -0.1535398066 0.014393473044 0 
-0.15464758873 0.014646012336 0 -0.1558021903 0.014815484174 0 -0.1569980979 0.014894337393 0 
-0.15822832286 0.014874427579 0 -0.15948390961 0.014748925343 0 -0.16075399518 0.014509817585 0 
-0.1620247364 0.01415262837 0 -0.16328006983 0.013669652864 0 -0.16449905932 0.013061634265 0 
-0.16565866768 0.012319961563 0 -0.16672754288 0.011456006207 0 -0.16767448187 0.010454963893 0 
-0.16845314205 0.009350313805 0 -0.16902635992 0.0081053432077 0 -0.16932593286 0.0068024643697 0 
-0.16931909323 0.0053420104086 0 -0.16889925301 0.0039207991213 0 -0.16806004941 0.0022755605169 0 
-0.16659711301 0.00085769197904 0 -0.13734994829 0.00046022690367 0 -0.1387834549 0.0012322927359 0 
-0.14003844559 0.0021298453212 0 -0.14110501111 0.0029311280232 0 -0.14202742279 0.0037810194772 0 
-0.14282184839 0.0045784432441 0 -0.14352595806 0.0053849862888 0 -0.14416238666 0.0061569795944 0 
-0.14476020634 0.0069197504781 0 -0.14533935487 0.0076542203315 0 -0.14591991901 0.0083698360249 0 
-0.14651601017 0.0090573681518 0 -0.14713987708 0.0097189377993 0 -0.14780001342 0.010348698124 0 
-0.1485029608 0.010945015587 0 -0.14925290644 0.011502719484 0 -0.15005262196 0.012017973699 0 
-0.15090331435 0.012485262938 0 -0.15180514753 0.012899292633 0 -0.15275715292 0.013253939338 0 
-0.15375733376 0.013542898931 0 -0.15480262041 0.013759568334 0 -0.15588887036 0.013897031546 0 
-0.15701057017 0.013948665932 0 -0.15816091001 0.013907379471 0 -0.15933124721 0.013767397963 0 
-0.16051128507 0.013521894813 0 -0.16168797016 0.013167421333 0 -0.16284620762 0.012697514147 0 
-0.16396640241 0.01211362239 0 -0.16502693295 0.01140839234 0 -0.16599829495 0.010593053885 0 
-0.16685093939 0.0096543058753 0 -0.16754092276 0.0086236046627 0 -0.16803245246 0.0074670440517 0 
-0.16826069355 0.0062608676963 0 -0.16819293797 0.004912732169 0 -0.1677287221 0.0036036961246 0 
-0.16685862839 0.0020906918216 0 -0.16539372504 0.00078802573262 0 -0.13803002238 0.00043986176024 0 
-0.13946509361 0.0011771614663 0 -0.14071653783 0.0020344385412 0 -0.14177598059 0.0027988050133 0 
-0.14268811047 0.003608853789 0 -0.1434700489 0.0043676495552 0 -0.14415971935 0.0051339813508 0 
-0.1447802633 0.0058659859933 0 -0.14536075294 0.0065878010355 0 -0.14592121542 0.0072811278515 0 
-0.14648151398 0.0079549532384 0 -0.1470554769 0.0086004156619 0 -0.14765505493 0.0092195253819 0 
-0.14828827977 0.0098066842183 0 -0.14896132052 0.010360355489 0 -0.14967791736 0.010875646025 0 
-0.15044042468 0.011348986067 0 -0.15124970675 0.011775244027 0 -0.15210556984 0.012149562128 0 
-0.15300671756 0.012466348708 0 -0.15395097435 0.01271991618 0 -0.15493509173 0.012904361822 0 
-0.1559548825 0.013013561256 0 -0.15700492263 0.013041743077 0 -0.158078596 0.012982764281 0 
-0.15916764736 0.01283178106 0 -0.16026234627 0.012583015487 0 -0.16135039926 0.012233892456 0 
-0.16241769493 0.01177902054 0 -0.16344586015 0.011220402084 0 -0.16441456974 0.010551767424 0 
-0.16529604793 0.0097840996459 0 -0.16606216133 0.0089054415002 0 -0.16667117178 0.0079452693462 0 
-0.1670883745 0.0068722972646 0 -0.16725197434 0.0057569649071 0 -0.16712915897 0.0045138252899 0 
-0.16662503779 0.0033092761878 0 -0.16572725773 0.0019191451138 0 -0.16426092386 0.00072337727761 0 
-0.13869526982 0.00041955287452 0 -0.14013174176 0.0011222513858 0 -0.14137923717 0.0019394053379 0 
-0.14243109524 0.0026670768857 0 -0.14333234727 0.0034375679679 0 -0.14410114288 0.0041581122205 0 
-0.14477565885 0.00488472078 0 -0.1453795433 0.0055773523636 0 -0.14594192803 0.0062589780428 0 
-0.14648291469 0.0069120931439 0 -0.14702212811 0.0075452420861 0 -0.14757323265 0.0081499470398 0 
-0.14814777672 0.008728120476 0 -0.14875344932 0.0092744259164 0 -0.14939601719 0.0097874347121 0 
-0.150078848 0.010262534954 0 -0.15080393851 0.010696425103 0 -0.15157181025 0.011084353551 0 
-0.15238197148 0.011421885341 0 -0.15323293209 0.011703940108 0 -0.1541223079 0.011925409548 0 
-0.15504680574 0.012081043795 0 -0.15600222349 0.012165446766 0 -0.15698327124 0.01217361819 0 
-0.15798357129 0.012100263499 0 -0.15899528563 0.01194136031 0 -0.16000925004 0.011692049913 0 
-0.16101396084 0.011350492947 0 -0.16199620068 0.010912223719 0 -0.16293874383 0.010379663669 0 
-0.1638225019 0.0097474772483 0 -0.16462118924 0.0090263243765 0 -0.16530801356 0.0082054464146 0 
-0.16584311426 0.0073123998009 0 -0.16619277 0.0063183456659 0 -0.16629785299 0.0052882740274 0 
-0.16612535715 0.0041432254948 0 -0.16558536887 0.0030359646771 0 -0.16466285288 0.0017599825514 0 
-0.16319556534 0.00066339375917 0 -0.13934473693 0.00039937003748 0 -0.14078241587 0.0010677467799 0 
-0.14202558994 0.0018450644566 0 -0.14306943119 0.0025363801979 0 -0.14395923913 0.0032677219715 0 
-0.14471426606 0.0039505050518 0 -0.14537298679 0.0046379906125 0 -0.1459595412 0.0052919690497 0 
-0.14650316536 0.0059342687018 0 -0.14702399075 0.0065481900238 0 -0.14754149318 0.0071418541484 0 
-0.14806909859 0.00770717673 0 -0.14861804247 0.0082459878176 0 -0.14919570088 0.0087532196194 0 
-0.14980742335 0.0092275580391 0 -0.15045626462 0.0096646752208 0 -0.1511439085 0.010061538778 0 
-0.15187056363 0.010413764045 0 -0.15263554454 0.010717324913 0 -0.15343716741 0.010967623442 0 
-0.15427292883 0.011160098016 0 -0.15513952076 0.011290097609 0 -0.15603277087 0.011352894828 0 
-0.15694756806 0.011344181374 0 -0.15787784755 0.011259420775 0 -0.15881617367 0.011095308699 0 
-0.15975393355 0.01084778551 0 -0.16068039834 0.010515631177 0 -0.1615832001 0.01009517163 0 
-0.16244621575 0.0095891384408 0 -0.1632514149 0.0089929979295 0 -0.1639739722 0.0083170253783 0 
-0.16458816826 0.0075515462086 0 -0.16505593061 0.0067222556099 0 -0.16534425318 0.0058026066981 0 
-0.16539645195 0.0048524788581 0 -0.16517917812 0.003799013095 0 -0.16460701823 0.0027823012788 0 
-0.16366241872 0.0016123360256 0 -0.16219460964 0.0006077484577 0 -0.13997748494 0.00037938158493 0 
-0.14141619205 0.0010138275102 0 -0.14265471697 0.001751727541 0 -0.14369009435 0.0024071410298 0 
-0.14456796646 0.0030998622533 0 -0.14530870318 0.0037454827689 0 -0.14595103264 0.0043945522048 0 
-0.14651970565 0.005010694731 0 -0.14704395831 0.0056146215647 0 -0.14754407108 0.0061904466711 0 
-0.14803934097 0.0067458860576 0 -0.14854300022 0.0072732558474 0 -0.14906595647 0.0077743157744 0 
-0.14961525798 0.0082442723215 0 -0.15019595623 0.0086819296703 0 -0.15081077814 0.0090832458809 0 
-0.15146112442 0.0094454474747 0 -0.15214699507 0.0097645092756 0 -0.15286749601 0.010036790743 0 
-0.15362080932 0.010258153081 0 -0.15440438688 0.010424537584 0 -0.15521492064 0.010531846434 0 
-0.15604834259 0.010575958528 0 -0.15689972043 0.010553182103 0 -0.15776331723 0.010459655896 0 
-0.15863212943 0.010292697698 0 -0.15949811041 0.010048940778 0 -0.1603512466 0.0097276810557 0 
-0.16117997468 0.0093259196728 0 -0.16196919978 0.00884660054 0 -0.16270188987 0.0082858875394 0 
-0.16335448623 0.007653621491 0 -0.16390226781 0.0069411084987 0 -0.16430871189 0.0061722551472 0 
-0.16454143822 0.0053226612508 0 -0.16454587877 0.0044474201277 0 -0.164288342 0.0034794048406 0 
-0.16368742287 0.0025469320826 0 -0.16272315383 0.0014754011063 0 -0.16125521064 0.00055613869336 0 
-0.14059270918 0.00035965381539 0 -0.14203225076 0.000960667443 0 -0.14326576889 0.0016596959904 0 
-0.14429232478 0.0022797707934 0 -0.14515778422 0.0029345152434 0 -0.1458837539 0.0035436763428 0 
-0.14650920033 0.0041551375762 0 -0.14705948532 0.0047343512997 0 -0.14756391943 0.0053009414114 0 
-0.14804290235 0.0058398386464 0 -0.14851555228 0.0063583706506 0 -0.14899492264 0.0068492619321 0 
-0.14949162304 0.0073142084293 0 -0.15001243353 0.0077486960217 0 -0.15056209266 0.0081516476348 0 
-0.15114305913 0.0085193039849 0 -0.15175646544 0.0088491421193 0 -0.15240214765 0.009137481451 0 
-0.1530790329 0.0093810483813 0 -0.15378524363 0.0095761287957 0 -0.15451820195 0.0097191315144 0 
-0.15527464449 0.0098064625636 0 -0.15605063736 0.0098345447332 0 -0.15684147179 0.0098002394661 0 
-0.15764172375 0.0097002768889 0 -0.15844486654 0.0095325140283 0 -0.15924336016 0.0092941801995 0 
-0.1600278765 0.0089849941432 0 -0.160787642 0.0086025344208 0 -0.16150848567 0.0081498781219 0 
-0.16217429936 0.007623788435 0 -0.16276268661 0.0070336447097 0 -0.16324980557 0.0063716387376 0 
-0.1636005044 0.0056599690579 0 -0.16378290951 0.0048762448132 0 -0.16374434531 0.0040710838512 0 
-0.16345065832 0.0031827425119 0 -0.16282404959 0.0023286002688 0 -0.16184234619 0.0013484332012 0 
-0.16037459671 0.00050828396343 0 -0.1411896348 0.00034025049536 0 -0.14262983203 0.00090843369253 0 
-0.14385804534 0.0015692587476 0 -0.14487540722 0.002154663438 0 -0.14572806656 0.002772183856 0 
-0.14643882215 0.003345686011 0 -0.14704698324 0.0039204405621 0 -0.14757847786 0.0044637159444 0 
-0.1480627358 0.0049940799363 0 -0.14852027595 0.005497279577 0 -0.1489700377 0.0059802723117 0 
-0.14942494035 0.0064361914992 0 -0.1498953104 0.0068666795269 0 -0.15038764477 0.0072675002739 0 
-0.15090639889 0.0076376963407 0 -0.15145382285 0.0079737836495 0 -0.15203081071 0.00827348046 0 
-0.15263703465 0.008533434011 0 -0.15327134728 0.0087507143617 0 -0.15393179655 0.0089220022783 0 
-0.15461583436 0.0090441331267 0 -0.15532024205 0.009113971144 0 -0.15604127944 0.0091284280643 0 
-0.15677447617 0.0090848524123 0 -0.15751470625 0.0089804930612 0 -0.15825590491 0.0088136671111 0 
-0.1589910537 0.0085821207613 0 -0.15971148014 0.0082859108225 0 -0.16040712595 0.0079231057316 0 
-0.16106468439 0.007496853359 0 -0.16166891158 0.0070044309832 0 -0.16219842434 0.0064547387883 0 
-0.16263021529 0.0058407750912 0 -0.16293029487 0.0051831086166 0 -0.16306725144 0.0044612358324 0 
-0.16299000382 0.0037215915509 0 -0.16266398132 0.0029074847698 0 -0.16201452911 0.0021261409856 0 
-0.16101741791 0.0012307422003 0 -0.15955017507 0.00046392442891 0 -0.14176765084 0.0003212322481 0 
-0.14320831001 0.00085728440899 0 -0.14443092048 0.0014806899708 0 -0.14543876052 0.0020321919583 0 
-0.14627823234 0.0026133435313 0 -0.14697343111 0.0031520777848 0 -0.14756393433 0.0036911140196 0 
-0.14807635546 0.0041995160282 0 -0.148540169 0.0046948310919 0 -0.14897605777 0.0051636169665 0 
-0.14940281212 0.0056124767289 0 -0.14983320236 0.0060349553823 0 -0.15027727187 0.0064326454885 0 
-0.15074129403 0.0068015884608 0 -0.15122947097 0.0071409433149 0 -0.15174379945 0.0074474932626 0 
-0.15228503942 0.007719187066 0 -0.15285272896 0.0079529806972 0 -0.15344564617 0.0081462617964 0 
-0.15406179428 0.0082960790023 0 -0.15469868481 0.0083996551111 0 -0.15535321832 0.0084542660043 0 
-0.15602180362 0.0084572602063 0 -0.15670023859 0.0084064109251 0 -0.15738373995 0.0082994252443 0 
-0.15806663036 0.0081350076944 0 -0.15874242783 0.0079113449901 0 -0.15940308571 0.0076287663542 0 
-0.16003920138 0.0072857514024 0 -0.16063827276 0.0068854643032 0 -0.16118584573 0.0064256303012 0 
-0.161661461 0.005914656911 0 -0.16204282641 0.005346280057 0 -0.16229707003 0.0047395210713 0 
-0.1623930335 0.0040756464005 0 -0.16228112578 0.003397190012 0 -0.16192622483 0.0026521969121 0 
-0.16125655174 0.0019384719199 0 -0.16024589539 0.0011216884013 0 -0.15877942741 0.0004228191392 0 
-0.14232620597 0.00030265611713 0 -0.14376710355 0.00080736802192 0 -0.14498384297 0.0013942465885 0 
-0.14598186314 0.001912705251 0 -0.14680783451 0.0024584380444 0 -0.14748714864 0.0029633787926 0 
-0.14805974066 0.0034677626099 0 -0.14855284989 0.0039424244314 0 -0.14899608493 0.0044039236382 0 
-0.149410218 0.0048396228813 0 -0.14981397986 0.005255788099 0 -0.1502199173 0.005646370817 0 
-0.15063787997 0.0060129212216 0 -0.15107388794 0.0063517522067 0 -0.15153191984 0.0066621368751 0 
-0.15201379359 0.006941115018 0 -0.15252009034 0.0071868523955 0 -0.15305027366 0.0073965955526 0 
-0.15360306203 0.0075680264272 0 -0.15417648852 0.0076985275373 0 -0.15476810932 0.0077856760472 0 
-0.15537495911 0.0078271133825 0 -0.15599362552 0.0078205764294 0 -0.15662017465 0.0077642118558 0 
-0.15725013614 0.0076561188325 0 -0.15787826478 0.0074953320436 0 -0.15849857032 0.0072804121301 0 
-0.15910355747 0.0070118983276 0 -0.15968447924 0.0066886190325 0 -0.16022957861 0.0063137109391 0 
-0.16072508693 0.005885285791 0 -0.16115145385 0.0054112575017 0 -0.1614869535 0.0048860353418 0 
-0.16169971228 0.004327179864 0 -0.16175882518 0.0037176162004 0 -0.16161593795 0.0030962433666 0 
-0.16123537719 0.0024155450519 0 -0.16054788232 0.0017645879416 0 -0.15952536464 0.0010206784355 0 
-0.15805993974 0.00038474448957 0 -0.14286482334 0.00028457510052 0 -0.14430579543 0.00075882207602 0 
-0.14551639557 0.0013101667864 0 -0.14650431275 0.0017965256702 0 -0.14731650054 0.0023078769445 0 
-0.14797969162 0.0027800728567 0 -0.14853416383 0.0032509402372 0 -0.14900782704 0.0036930521019 0 
-0.14943039417 0.0041220178828 0 -0.14982281625 0.0045259930193 0 -0.15020366013 0.0049109226093 0 
-0.15058536828 0.0052711595781 0 -0.15097753704 0.0056082154624 0 -0.15138597786 0.00591866998 0 
-0.15181443095 0.0062019038014 0 -0.15226458013 0.0064552035183 0 -0.15273687243 0.0066769365221 0 
-0.15323071182 0.0068646203727 0 -0.15374475718 0.0070162070915 0 -0.15427711606 0.0071293851361 0 
-0.15482540429 0.007202047389 0 -0.15538679063 0.0072321640328 0 -0.15595807135 0.0072178123519 0 
-0.15653556585 0.0071574631147 0 -0.15711514652 0.007049553562 0 -0.15769192576 0.0068933949806 0 
-0.15826040506 0.0066878623329 0 -0.15881364048 0.0064336555079 0 -0.15934345126 0.0061298948713 0 
-0.15983879566 0.0057796537876 0 -0.16028654575 0.0053813806735 0 -0.16066792607 0.0049424986355 0 
-0.16096180677 0.004458037205 0 -0.16113714874 0.0039441767149 0 -0.16116319597 0.0033854003996 0 
-0.16099272668 0.002817223547 0 -0.16058947146 0.0021962858737 0 -0.15988637507 0.0016035552835 0 
-0.15885359049 0.00092716142535 0 -0.15738941729 0.00034949296969 0 -0.14338320494 0.00026703774347 0 
-0.14482402802 0.0007117720088 0 -0.14602825046 0.0012286675628 0 -0.14700581133 0.0016839469317 0 
-0.14780397713 0.002162030898 0 -0.14845083654 0.0026025976986 0 -0.14898703992 0.0030411451589 0 
-0.14944118261 0.00345194689 0 -0.14984312654 0.0038497005589 0 -0.15021395683 0.0042233401909 0 
-0.15057212114 0.0045785042457 0 -0.15092991292 0.0049099428579 0 -0.15129670501 0.0052191303112 0 
-0.15167811513 0.0055029056966 0 -0.15207768977 0.005760751199 0 -0.15249696374 0.0059901871718 0 
-0.15293630958 0.0061897691339 0 -0.15339502692 0.0063572656363 0 -0.15387181938 0.0064908755012 0 
-0.1543648243 0.006588563323 0 -0.1548717469 0.0066485051066 0 -0.15538991988 0.0066689620726 0 
-0.1559163481 0.0066483095288 0 -0.1564475745 0.0065852971748 0 -0.15697981417 0.006478653755 0 
-0.15750856698 0.006327916868 0 -0.15802873671 0.0061322278343 0 -0.15853391588 0.0058924020268 0 
-0.15901647508 0.0056078033522 0 -0.15946601331 0.0052814162336 0 -0.15986999869 0.0049119805917 0 
-0.16021040082 0.0045064375736 0 -0.16046655178 0.0040603885427 0 -0.16060821712 0.0035887153354 0 
-0.16060473025 0.0030773633625 0 -0.16040982306 0.0025587035343 0 -0.15998661518 0.0019932617433 0 
-0.15926997364 0.0014545049053 0 -0.15822835267 0.00084062566748 0 -0.15676565468 0.00031687167939 0 
-0.14388111234 0.00025008781813 0 -0.14532159269 0.00066633051028 0 -0.14651918411 0.0011499440297 0 
-0.14748615026 0.0015752315521 0 -0.14827007055 0.0020212316886 0 -0.14890044928 0.0024313419126 0 
-0.14941830933 0.0028388171922 0 -0.1498529613 0.0032195886597 0 -0.15023438632 0.0035874817986 0 
-0.15058383346 0.003932191059 0 -0.15091961622 0.0042590661906 0 -0.15125390887 0.004563242197 0 
-0.15159587562 0.0048461593688 0 -0.15195091069 0.0051049077883 0 -0.15232242644 0.0053390646353 0 
-0.15271179378 0.0055463709868 0 -0.15311929584 0.0057255551219 0 -0.15354424715 0.0058746174909 0 
-0.15398532152 0.0059919799678 0 -0.15444073081 0.0060758562759 0 -0.15490829945 0.0061246748082 0 
-0.15538549423 0.0061369524337 0 -0.15586954355 0.0061113247648 0 -0.15635724366 0.0060467803851 0 
-0.15684509277 0.0059422953054 0 -0.15732897818 0.0057975933887 0 -0.15780420601 0.0056120362133 0 
-0.15826484561 0.0053865201771 0 -0.15870378911 0.0051206108183 0 -0.15911121666 0.0048171821982 0 
-0.15947516263 0.0044752289541 0 -0.15977828205 0.0041012233123 0 -0.16000033915 0.0036912930664 0 
-0.16011177003 0.0032591037452 0 -0.16008201241 0.0027919714339 0 -0.15986557305 0.0023193482775 0 
-0.15942493081 0.0018053923268 0 -0.15869666636 0.0013166280696 0 -0.15764756501 0.00076059519779 0 
-0.15618653595 0.00028670125175 0 -0.14435839653 0.00023376411991 0 -0.14579832554 0.00062259694096 0 
-0.14698907733 0.0010741678998 0 -0.14794524014 0.0014706100337 0 -0.1487147361 0.0018857681425 0 
-0.14932851493 0.0022666426376 0 -0.14982801676 0.0026443360839 0 -0.15024323761 0.0029963883571 0 
-0.15060433745 0.0033357935026 0 -0.15093269944 0.0036529873032 0 -0.1512465179 0.0039530443028 0 
-0.15155783296 0.0042314752936 0 -0.15187560022 0.0044896877371 0 -0.15220502019 0.0047250119969 0 
-0.15254935622 0.0049371132627 0 -0.15290986001 0.0051239402965 0 -0.15328674018 0.0052843787707 0 
-0.15367929637 0.0054166424088 0 -0.15408624709 0.005519353319 0 -0.15450586379 0.0055909496732 0 
-0.15493609011 0.0056300829165 0 -0.15537457168 0.005635493435 0 -0.15581868589 0.0056060431525 0 
-0.15626552701 0.0055409218185 0 -0.15671184659 0.0054393168539 0 -0.15715390444 0.0053011011332 0 
-0.15758737922 0.0051258192398 0 -0.1580067873 0.0049144169316 0 -0.15840551257 0.0046666278504 0 
-0.15877428651 0.0043851993978 0 -0.15910166502 0.0040693483315 0 -0.1593709141 0.0037250935566 0 
-0.15956221521 0.0033490511123 0 -0.15964663029 0.0029537475202 0 -0.15959361196 0.0025277845562 0 
-0.15935833752 0.0020979088731 0 -0.15890264511 0.001631669933 0 -0.15816451609 0.0011891709873 0 
-0.15710918605 0.00068662711419 0 -0.15565003455 0.0002588146599 0 -0.14481507242 0.00021810016187 0 
-0.14625422657 0.00058065651683 0 -0.14743793011 0.0010014864383 0 -0.14838306606 0.0013702792348 0 
-0.14913800359 0.0017558863619 0 -0.14973509312 0.0021087848581 0 -0.15021623671 0.0024580189493 0 
-0.15061220527 0.0027826854493 0 -0.15095321834 0.0030949884094 0 -0.15126088262 0.0033860818949 0 
-0.1515532136 0.0036607808433 0 -0.15184216201 0.0039149592631 0 -0.15213644505 0.0041499934159 0 
-0.15244109929 0.0043634418398 0 -0.15275920928 0.004555051215 0 -0.15309196711 0.0047229630873 0 
-0.15343950689 0.0048662074842 0 -0.15380112827 0.0049831923097 0 -0.15417557955 0.0050727198832 0 
-0.1545612216 0.0051334281452 0 -0.15495611727 0.0051641636528 0 -0.15535806119 0.0051638628356 0 
-0.15576466918 0.0051315817982 0 -0.15617321432 0.0050666811876 0 -0.15658077598 0.0049685253762 0 
-0.15698389709 0.0048371055163 0 -0.15737864375 0.004672115203 0 -0.15775996447 0.0044745267369 0 
-0.15812166035 0.0042442097329 0 -0.15845499933 0.0039837751538 0 -0.15874902904 0.0036926346365 0 
-0.15898761153 0.00337637146 0 -0.15915127099 0.0030320528895 0 -0.15921162069 0.0026711439714 0 
-0.15913812816 0.0022834506817 0 -0.15888653696 0.0018932162784 0 -0.15841798484 0.001471152762 0 
-0.15767166018 0.0010714306263 0 -0.15661127865 0.00061830849154 0 -0.15515416861 0.00023305631476 0 
-0.14525122941 0.00020312416018 0 -0.14668940008 0.00054058054229 0 -0.14786581695 0.00093202263815 0 
-0.14879974723 0.0012744021369 0 -0.14953996241 0.0016317883274 0 -0.15012031794 0.0019579995424 0 
-0.15058320761 0.0022801207379 0 -0.15096007288 0.0025787481572 0 -0.15128135681 0.0028653389309 0 
-0.15156875551 0.0031317409594 0 -0.15184018016 0.0033825240098 0 -0.15210743248 0.0036139115691 0 
-0.15237900615 0.0038272487 0 -0.15265981853 0.0040203123353 0 -0.15295274556 0.004192921333 0 
-0.15325893462 0.0043433974497 0 -0.15357846022 0.0044709010981 0 -0.1539106071 0.0045740157366 0 
-0.15425421298 0.0046517043374 0 -0.15460769832 0.0047027822584 0 -0.154969275 0.0047262688167 0 
-0.15533687174 0.0047212680802 0 -0.15570828319 0.0046870033257 0 -0.15608105063 0.0046229781583 0 
-0.15645249188 0.0045287040994 0 -0.15681944788 0.0044042645022 0 -0.15717834234 0.0042494754307 0 
-0.15752449632 0.0040653124452 0 -0.15785215795 0.0038517578505 0 -0.1581530869 0.0036112784874 0 
-0.15841677785 0.0033434566576 0 -0.15862761438 0.0030534595717 0 -0.1587664932 0.00273877359 0 
-0.15880554914 0.0024098751601 0 -0.15871417522 0.0020576987881 0 -0.15844860673 0.0017041737447 0 
-0.15796925128 0.0013229597826 0 -0.1572162807 0.00096274993848 0 -0.15615193546 0.00055525399512 0 
-0.15469706059 0.00020928085723 0 -0.14566706121 0.00018885890313 0 -0.14710402489 0.00050242576981 0 
-0.14827296138 0.00086587434635 0 -0.14919547737 0.0011831073789 0 -0.14992085099 0.0015136315487 0 
-0.15048444271 0.0018144646892 0 -0.15092915297 0.0021108333021 0 -0.15128719807 0.0023847736884 0 
-0.15158911049 0.0026470392477 0 -0.15185675025 0.0028901444748 0 -0.15210789442 0.003118429333 0 
-0.15235419571 0.0033284514211 0 -0.15260393918 0.0035215257667 0 -0.15286184847 0.0036956346594 0 
-0.15313071012 0.0038506616838 0 -0.15341153741 0.0039850962348 0 -0.15370440483 0.0040982142091 0 
-0.15400859714 0.0041887597181 0 -0.15432301164 0.0042558372952 0 -0.15464617312 0.004298419226 0 
-0.15497638285 0.0043156747706 0 -0.15531176329 0.0043068532832 0 -0.15565027297 0.0042713200673 0 
-0.15598966181 0.0042086970061 0 -0.15632750094 0.004118619021 0 -0.15666094422 0.0040012369864 0 
-0.15698668361 0.0038564661518 0 -0.15730045736 0.0036852697376 0 -0.15759688616 0.0034877199214 0 
-0.1578681916 0.0032661366276 0 -0.1581043005 0.0030202518683 0 -0.15829013288 0.0027548375074 0 
-0.15840689838 0.002467768034 0 -0.15842720866 0.0021686030086 0 -0.15832036734 0.0018493334064 0 
-0.15804299712 0.0015297529753 0 -0.15755476058 0.0011862665415 0 -0.1567966491 0.00086251500761 0 
-0.15572938323 0.00049710366875 0 -0.15427692235 0.00018735257618 0 -0.14606286585 0.00017532185302 0 
-0.14749838412 0.00046623501112 0 -0.14865961671 0.00080311496276 0 -0.14957052469 0.0010964898393 0 
-0.15028095245 0.0014015301131 0 -0.15082778037 0.0016783055617 0 -0.15125446022 0.0019502874929 0 
-0.15159393847 0.0022008898668 0 -0.15187691152 0.0024402057752 0 -0.15212537348 0.0026613888331 0 
-0.15235692263 0.0028685634024 0 -0.15258306265 0.0030586048961 0 -0.15281185508 0.0032327990048 0 
-0.15304790437 0.0033893203363 0 -0.15329380333 0.0035281109158 0 -0.15355053544 0.0036478135735 0 
-0.15381813049 0.0037478080485 0 -0.15409590304 0.0038269816432 0 -0.15438278019 0.0038845657837 0 
-0.15467740595 0.0039196698926 0 -0.15497820079 0.0039315931499 0 -0.15528342128 0.0039197094738 0 
-0.15559121966 0.0038835045416 0 -0.15589956939 0.0038226977922 0 -0.15620622039 0.0037370237987 0 
-0.15650862455 0.0036266846582 0 -0.15680378675 0.0034916729201 0 -0.15708777308 0.0033329266589 0 
-0.15735557675 0.0031505906954 0 -0.15759986639 0.0029468357097 0 -0.15781098604 0.0027215247974 0 
-0.15797434747 0.0024790568277 0 -0.15807147324 0.0022176667117 0 -0.15807537735 0.0019460641779 0 
-0.15795533359 0.0016572288005 0 -0.15766820312 0.0013689878397 0 -0.15717293322 0.0010602994589 0 
-0.15641105175 0.0007701505674 0 -0.15534186363 0.0004435206356 0 -0.15389199555 0.00016714437515 0 
-0.14643904567 0.00016252521891 0 -0.1478728801 0.0004320370499 0 -0.14902618527 0.00074379361467 0 
-0.14992529154 0.0010146108689 0 -0.15062063932 0.0012955550337 0 -0.15115070343 0.0015495957341 0 
-0.15155950189 0.0017985536251 0 -0.15188074112 0.0020271562971 0 -0.15214525163 0.0022448806558 0 
-0.15237511694 0.0024454898667 0 -0.15258780122 0.0026329066604 0 -0.15279462934 0.0028043081984 0 
-0.15300343931 0.0029609501362 0 -0.15321867168 0.0031011877581 0 -0.15344278514 0.0032250140794 0 
-0.15367668867 0.0033312118612 0 -0.15392039716 0.0034192537423 0 -0.15417325497 0.0034881557804 0 
-0.15443426371 0.0035372602288 0 -0.15470211208 0.0035657964181 0 -0.15497538447 0.0035731766839 0 
-0.15525247157 0.0035588806495 0 -0.15553168952 0.0035224952735 0 -0.15581119061 0.0034638186917 0 
-0.15608897805 0.0033826674335 0 -0.15636272728 0.0032792780548 0 -0.15662971139 0.003153703874 0 
-0.15688633919 0.0030068475753 0 -0.15712796152 0.0028389112558 0 -0.15734766424 0.0026519168168 0 
-0.15753616393 0.0024458440021 0 -0.15767939389 0.0022247384768 0 -0.1577591598 0.0019871699624 0 
-0.157748878 0.0017410640139 0 -0.15761771798 0.0014803241938 0 -0.1573227644 0.0012209699489 0 
-0.15682215989 0.00094433309278 0 -0.15605786443 0.00068511738209 0 -0.15498770773 0.00039418917731 0 
-0.15354059637 0.0001485371904 0 -0.14679609239 0.00015047610214 0 -0.14822798967 0.00039984736941 0 
-0.14937314391 0.00068793614628 0 -0.15026021004 0.00093750009546 0 -0.15094037354 0.0011957362294 0 
-0.15145368874 0.0014283589553 0 -0.15184478462 0.0016556441551 0 -0.15214811265 0.0018635682063 0 
-0.15239465237 0.0020610345528 0 -0.15260659158 0.0022423863411 0 -0.15280115604 0.0024113585241 0 
-0.15298955142 0.0025654127821 0 -0.15317936242 0.0027057752013 0 -0.15337483585 0.0028309682384 0 
-0.15357835591 0.0029410293791 0 -0.15379072726 0.0030348696746 0 -0.1540119499 0.0031120432541 0 
-0.15424141288 0.0031716816593 0 -0.15447814763 0.0032132228371 0 -0.15472096205 0.0032360029873 0 
-0.15496855974 0.003239529673 0 -0.15521945059 0.0032233728562 0 -0.15547212958 0.0031872040126 0 
-0.15572491288 0.0031308846083 0 -0.15597601235 0.0030542970635 0 -0.15622332692 0.0029576993547 0 
-0.15646441281 0.0028411911335 0 -0.15669597685 0.0027056322433 0 -0.15691366792 0.002551269019 0 
-0.1571110338 0.0023799773771 0 -0.1572791487 0.0021918385755 0 -0.15740439296 0.00199056766 0 
-0.15746891499 0.0017750452971 0 -0.15744648874 0.0015524730552 0 -0.1573061794 0.0013176193461 0 
-0.15700522065 0.0010848445818 0 -0.15650092065 0.00083768524928 0 -0.15573549271 0.00060690910323 0 
-0.15466527641 0.0003488129878 0 -0.15322113037 0.00013141919044 0 -0.14713460207 0.00013917680189 0 
-0.14856429398 0.00036966864718 0 -0.14970102906 0.00063554599183 0 -0.15057583153 0.00086515612202 0 
-0.15124067664 0.0011020638049 0 -0.15173722804 0.0013145714765 0 -0.15211081505 0.0015215168241 0 
-0.15239658952 0.0017100584228 0 -0.15262569487 0.0018885706086 0 -0.15282034874 0.0020519450773 0 
-0.15299762785 0.0022037427407 0 -0.15316848457 0.0023416921031 0 -0.15334028006 0.0024669896811 0 
-0.15351711214 0.0025783125311 0 -0.15370121598 0.0026757365558 0 -0.15389333665 0.0027582892217 0 
-0.15409345925 0.002825596137 0 -0.15430100262 0.0028768912889 0 -0.1545150727 0.0029116971418 0 
-0.15473455191 0.002929441398 0 -0.15495824814 0.0029297138099 0 -0.1551848352 0.0029121604748 0 
-0.15541292727 0.0028765224852 0 -0.15564100444 0.0028227122966 0 -0.15586750209 0.0027506637853 0 
-0.15609049797 0.0026606461033 0 -0.1563078016 0.0025527935941 0 -0.15651641786 0.0024279174395 0 
-0.15671230853 0.002286297502 0 -0.15688940883 0.0021296669729 0 -0.1570391804 0.0019581969827 0 
-0.15714845061 0.001775292214 0 -0.15719968081 0.0015801218105 0 -0.15716700256 0.0013792223763 0 
-0.15701939166 0.0011681698961 0 -0.15671415627 0.0009598058532 0 -0.15620772541 0.00073971413076 0 
-0.15544240177 0.00053504941752 0 -0.15437301993 0.00030711348518 0 -0.15293204784 0.00011568524496 0 
-0.14745520055 0.00012862498988 0 -0.14888243377 0.00034149157 0 -0.15001046658 0.00058660580544 0 
-0.15087275207 0.00079754885519 0 -0.15152211487 0.0010144909611 0 -0.15200191736 0.0012081651948 0 
-0.15235817432 0.0013960776851 0 -0.15262676775 0.0015665027313 0 -0.15283897519 0.001727328985 0 
-0.15301705897 0.0018739653751 0 -0.1531778425 0.002009812044 0 -0.15333208442 0.0021328465082 0 
-0.15348689258 0.0022442357149 0 -0.15364617109 0.0023427987471 0 -0.15381205082 0.0024286441039 0 
-0.15398520231 0.0025009042583 0 -0.15416559577 0.002559267683 0 -0.15435267985 0.0026030589361 0 
-0.15454563498 0.0026318740565 0 -0.1547434181 0.002645219909 0 -0.1549449563 0.0026427567936 0 
-0.1551490128 0.0026241929736 0 -0.15535438061 0.0025893291458 0 -0.15555968881 0.0025381152518 0 
-0.15576352179 0.0024705268443 0 -0.15596419573 0.0023868351709 0 -0.15615971386 0.0022871992551 0 
-0.15634736419 0.0021723778918 0 -0.15652342141 0.0020426758565 0 -0.15668217838 0.0018996879226 0 
-0.15681549907 0.0017436638009 0 -0.15691064298 0.0015777182998 0 -0.15695039928 0.0014012880856 0 
-0.15690924227 0.0012202996295 0 -0.15675605834 0.0010310835205 0 -0.15644817054 0.00084509403678 0 
-0.15594112873 0.00064981507603 0 -0.1551771313 0.00046908986405 0 -0.1541094631 0.00026882832753 0 
-0.15267185867 0.00010123633547 0 -0.1477586627 0.00011881421233 0 -0.1491831243 0.00031529576518 0 
-0.15030215681 0.00054107868345 0 -0.1511516124 0.00073462136788 0 -0.15178532898 0.00093293614918 0 
-0.15224836767 0.0011090305634 0 -0.15258747339 0.0012791847112 0 -0.15283927321 0.0014327233657 0 
-0.15303513408 0.001577091869 0 -0.15319734812 0.0017081850674 0 -0.15334247053 0.0018292552559 0 
-0.15348102152 0.0019385106862 0 -0.15361985564 0.0020370890852 0 -0.15376269817 0.0021239393391 0 
-0.15391151607 0.0021991967224 0 -0.15406696498 0.0022620884702 0 -0.15422897041 0.0023123575374 0 
-0.1543970257 0.0023494090419 0 -0.15457037091 0.0023729021195 0 -0.15474805236 0.0023824120872 0 
-0.15492905676 0.0023776586168 0 -0.15511234105 0.0023584032897 0 -0.15529675782 0.0023244933691 0 
-0.15548111498 0.0022759090643 0 -0.15566413105 0.0022126571275 0 -0.15584434569 0.0021350041497 0 
-0.15601995587 0.002043126151 0 -0.15618847311 0.0019377269782 0 -0.15634652972 0.0018191287527 0 
-0.1564887315 0.0016887927195 0 -0.15660731494 0.0015470377402 0 -0.15669004619 0.0013967079576 0 
-0.15671999753 0.0012374878861 0 -0.15667201579 0.001074745669 0 -0.15651489794 0.00090551690664 0 
-0.15620590746 0.00073999166489 0 -0.15569970012 0.00056741759181 0 -0.15493823588 0.00040860741865 0 
-0.15387313068 0.00023371013231 0 -0.15243916214 8.7978980446e-05 0 -0.14804577827 0.00010973413737 0 
-0.14946717024 0.00029105084832 0 -0.15057685971 0.00049891002709 0 -0.15141315758 0.00067629216937 0 
-0.15203101933 0.00085728638805 0 -0.1524772346 0.0010170198511 0 -0.1527993679 0.0011706523364 0 
-0.15303474665 0.0013084937818 0 -0.15321484208 0.0014375888277 0 -0.15336190164 0.0015542864567 0 
-0.15349219739 0.0016617034562 0 -0.15361598134 0.0017582608853 0 -0.15373983979 0.001845067367 0 
-0.15386733413 0.0019211889012 0 -0.15400026739 0.0019867836963 0 -0.15413923562 0.0020411633886 0 
-0.15428417921 0.0020841178484 0 -0.15443459153 0.0021151234396 0 -0.15458977222 0.0021338935476 0 
-0.15474885702 0.0021400626283 0 -0.15491095185 0.0021334001794 0 -0.15507507324 0.0021137117874 0 
-0.15524023771 0.0020808831323 0 -0.15540535748 0.0020349163096 0 -0.15556931496 0.0019758411217 0 
-0.15573079884 0.0019039153121 0 -0.15588822961 0.0018193245633 0 -0.15603937209 0.0017227166099 0 
-0.15618108213 0.0016144250985 0 -0.15630836785 0.0014957832173 0 -0.15641385317 0.0013671696652 0 
-0.15648573637 0.0012311764294 0 -0.15650741756 0.0010877178283 0 -0.15645416081 0.00094165140763 0 
-0.15629462898 0.00079067191109 0 -0.15598604083 0.00064382073469 0 -0.15548211336 0.00049198284978 0 
-0.15472432971 0.00035320245661 0 -0.15366268158 0.00020152502111 0 -0.15223257244 7.5824806117e-05 0 
-0.14831742644 0.00010137107165 0 -0.14973540604 0.00026871744194 0 -0.15083537996 0.0004600295797 0 
-0.15165814757 0.00062245799927 0 -0.15225988626 0.00078740011668 0 -0.15268921852 0.00093195139198 0 
-0.15299452841 0.0010702555301 0 -0.15321387351 0.0011935441289 0 -0.15337876976 0.0013085022802 0 
-0.15351139009 0.0014119022526 0 -0.15362767875 0.0015067366185 0 -0.15373763442 0.0015916214325 0 
-0.15384753048 0.0016676363302 0 -0.15396073461 0.0017339529004 0 -0.15407891572 0.0017907472793 0 
-0.15420261025 0.0018374065403 0 -0.15433175862 0.0018737612991 0 -0.15446586907 0.0018993503181 0 
-0.15460428596 0.0019139330834 0 -0.15474626422 0.00191719539 0 -0.15489093959 0.0019089487614 0 
-0.15503747761 0.001889034058 0 -0.1551849544 0.0018573686248 0 -0.155332461 0.0018139696913 0 
-0.15547899902 0.0017588845221 0 -0.15562340617 0.0016923571238 0 -0.15576428175 0.0016145778354 0 
-0.1558996141 0.0015261385124 0 -0.15602655709 0.0014273787383 0 -0.15614044666 0.0013195089996 0 
-0.15623429418 0.0012029603822 0 -0.15629674494 0.0010800898308 0 -0.1563116163 0.00095102383057 0 
-0.15625448525 0.00082015461521 0 -0.15609401464 0.00068579305662 0 -0.15578727424 0.00055594003061 0 
-0.15528699756 0.00042300138739 0 -0.15453408659 0.00030249689007 0 -0.15347677469 0.00017205165932 0 
-0.15205082297 6.4690080762e-05 0 -0.14857456088 9.3708411441e-05 0 -0.14998875558 0.00024824857246 0 
-0.15107858181 0.0004243531439 0 -0.15188735723 0.00057299609762 0 -0.15247267485 0.00072311074473 0 
-0.15288501978 0.00085361325182 0 -0.15317367017 0.00097773456946 0 -0.15337735415 0.0010875659063 0 
-0.15352761745 0.0011894736672 0 -0.15364649892 0.0012806217419 0 -0.15374962986 0.001363890362 0 
-0.15384665132 0.0014380724169 0 -0.15394356847 0.0015042183222 0 -0.15404352546 0.0015615940792 0 
-0.154148072 0.0016103900271 0 -0.15425767004 0.0016500598285 0 -0.15437223017 0.0016804691404 0 
-0.15449132025 0.0017012110911 0 -0.15461434424 0.0017120852135 0 -0.15474057198 0.0017128206091 0 
-0.15486928821 0.0017032641917 0 -0.15499970317 0.0016832859255 0 -0.1551310271 0.0016528281849 0 
-0.15526244044 0.0016119180946 0 -0.15539309382 0.0015606152592 0 -0.15552194417 0.0014991469216 0 
-0.15564776957 0.0014277045848 0 -0.1557687819 0.0013468241086 0 -0.15588238835 0.0012568470556 0 
-0.15598426759 0.0011588669149 0 -0.1560678184 0.0010533594759 0 -0.15612217784 0.00094246311346 0 
-0.15613153577 0.00082649971591 0 -0.15607188642 0.0007094378816 0 -0.15591183305 0.0005901651457 0 
-0.1556083262 0.00047574259224 0 -0.1551130861 0.00035999104148 0 -0.15436623991 0.0002561325382 0 
-0.15331415832 0.00014508006279 0 -0.15189266205 5.4495274526e-05 0 -0.14881813526 8.6727137386e-05 0 
-0.15022815764 0.00022959077614 0 -0.15130734444 0.00039178493898 0 -0.15210163593 0.00052776717348 0 
-0.15267017484 0.00066422973759 0 -0.15306539834 0.0007817671285 0 -0.15333749354 0.00089279928943 0 
-0.15352587402 0.00099021755159 0 -0.15366205573 0.0010801085737 0 -0.15376792848 0.0011599977734 0 
-0.15385870636 0.0012326630531 0 -0.15394370258 0.0012970564421 0 -0.1540286094 0.0013541993685 0 
-0.15411633253 0.001403441187 0 -0.1542083025 0.0014449829469 0 -0.15430492163 0.0014783368679 0 
-0.15440608561 0.0015033984091 0 -0.15451139212 0.0015198084293 0 -0.1546202749 0.0015274005709 0 
-0.15473210812 0.0015259409556 0 -0.15484620631 0.0015153058339 0 -0.15496189892 0.0014953888021 0 
-0.15507848561 0.001466151909 0 -0.15519525111 0.0014276285656 0 -0.15531143546 0.0013798859436 0 
-0.1554261446 0.001323133125 0 -0.15553832054 0.0012575592846 0 -0.15564638376 0.0011836451013 0 
-0.15574797988 0.0011017312063 0 -0.15583913028 0.0010127993301 0 -0.15591362119 0.00091736350441 0 
-0.15596108139 0.00081735785352 0 -0.15596613288 0.00071328430204 0 -0.15590520203 0.00060872599715 0 
-0.15574689209 0.00050311069936 0 -0.1554479748 0.00040265376447 0 -0.15495912731 0.0003024948237 0 
-0.15421955287 0.00021376939549 0 -0.15317364037 0.00012041064474 0 -0.15175694227 4.5164691983e-05 0 
-0.14904919267 8.040630928e-05 0 -0.15045462549 0.00021268545242 0 -0.15152260661 0.00036221960909 0 
-0.15230183303 0.0004866180825 0 -0.1528531611 0.00061055028345 0 -0.15323106945 0.00071615254274 0 
-0.15348671377 0.00081513420446 0 -0.15366013348 0.00090112938778 0 -0.15378279984 0.00097998336423 0 
-0.15387634933 0.0010495523456 0 -0.15395559371 0.0011125222081 0 -0.15402944386 0.0011679861927 0 
-0.15410324931 0.0012169368565 0 -0.15417973697 0.0012587961974 0 -0.15426015854 0.0012937728316 0 
-0.15434488654 0.0013214304345 0 -0.15443378687 0.0013416898437 0 -0.15452647209 0.0013542332454 0 
-0.15462245047 0.0013589235023 0 -0.15472112596 0.0013555580517 0 -0.15482190251 0.0013440375915 0 
-0.15492418408 0.0013242749264 0 -0.15502735972 0.0012962472392 0 -0.15513080359 0.0012599908514 0 
-0.15523386002 0.0012155777076 0 -0.15533575416 0.0011631969828 0 -0.15543559194 0.0011030333117 0 
-0.15553195775 0.0010355141712 0 -0.15562273562 0.00096097582718 0 -0.15570431948 0.00088029407198 0 
-0.15577086806 0.00079401460243 0 -0.15581253171 0.00070388085442 0 -0.15581439435 0.00061055988772 0 
-0.1557533294 0.00051728414837 0 -0.15559799969 0.00042398815276 0 -0.15530501306 0.00033612936386 0 
-0.15482391417 0.00025007961085 0 -0.1540928632 0.00017508442397 0 -0.15305410326 9.7853291663e-05 0 
-0.15164257586 3.6626039218e-05 0 -0.14926882088 7.4723633588e-05 0 -0.15066917241 0.00019747027545 0 
-0.15172532201 0.00033554446418 0 -0.1524887979 0.00044938459178 0 -0.15302242339 0.00056185049471 0 
-0.15338277817 0.000656490447 0 -0.15362204611 0.00074440246681 0 -0.15378083289 0.00081990880426 0 
-0.15389053524 0.00088864995632 0 -0.15397247672 0.00094878330128 0 -0.15404094756 0.0010029112455 0 
-0.15410451591 0.001050250954 0 -0.15416812897 0.0010917660547 0 -0.15423431993 0.0011269410606 0 
-0.15430419147 0.0011559895938 0 -0.15437804163 0.0011785199167 0 -0.15445575118 0.0011944744037 0 
-0.15453693271 0.001203571097 0 -0.15462113917 0.0012056974228 0 -0.15470784903 0.0012006779434 0 
-0.15479652584 0.0011884332635 0 -0.15488663316 0.0011688914383 0 -0.15497763455 0.0011420416413 0 
-0.15506900847 0.0011079203105 0 -0.15516017377 0.0010666016024 0 -0.15525048971 0.0010182543192 0 
-0.15533916652 0.00096305692568 0 -0.15542498231 0.00090138503583 0 -0.15550608933 0.00083356886171 0 
-0.15557914972 0.00076038314728 0 -0.15563878417 0.00068239960819 0 -0.15567563474 0.00060118286638 0 
-0.15567530692 0.00051755062304 0 -0.15561516583 0.00043441634625 0 -0.15546400845 0.00035219040001 0 
-0.15517823398 0.00027565381606 0 -0.1547062993 0.00020233429677 0 -0.1539850533 0.00013977005437 0 
-0.15295445919 7.7226453868e-05 0 -0.15154854953 2.8810050935e-05 0 -0.14947812259 6.9656045525e-05 0 
-0.15087287128 0.00018388054741 0 -0.1519164294 0.00031164163374 0 -0.15266339481 0.00041589405737 0 
-0.15317873657 0.00051789666759 0 -0.15352125466 0.00060248712543 0 -0.15374419093 0.00068025063956 0 
-0.15388868749 0.00074614508776 0 -0.15398596227 0.00080564193195 0 -0.1540569514 0.00085716968169 0 
-0.15411543846 0.00090325553901 0 -0.15416952968 0.00094322307268 0 -0.15422384441 0.00097800709773 0 
-0.15428061783 0.001007144805 0 -0.15434087813 0.0010308529017 0 -0.15440484881 0.0010487776017 0 
-0.15447236598 0.0010608796729 0 -0.15454310179 0.0010669081239 0 -0.15461662412 0.0010667716851 0 
-0.15469247103 0.0010603169212 0 -0.15477018058 0.0010474816663 0 -0.15484926105 0.0010282057337 0 
-0.15492926538 0.0010024873773 0 -0.15500971675 0.00097036128864 0 -0.15509015322 0.00093190185726 0 
-0.15517002344 0.00088725757087 0 -0.15524864197 0.00083659921074 0 -0.15532499552 0.00078025303083 0 
-0.15539741516 0.00071854132693 0 -0.15546293557 0.00065214250935 0 -0.15551656485 0.00058164907387 0 
-0.15554949641 0.0005084570148 0 -0.15554788709 0.00043352117063 0 -0.15548966825 0.00035946379649 0 
-0.15534380078 0.00028714313521 0 -0.15506650507 0.00022073916625 0 -0.15460512042 0.00015886875917 0 
-0.15389503539 0.00010753308743 0 -0.1528737247 5.8356279624e-05 0 -0.15147392452 2.1650077542e-05 0 
-0.14967824519 6.5180240199e-05 0 -0.15106679499 0.00017185063916 0 -0.15209692717 0.00029039030778 0 
-0.15282648802 0.00038596807281 0 -0.1533228755 0.00047844616347 0 -0.15364721417 0.00055383768631 0 
-0.15385383368 0.00062231213087 0 -0.15398435295 0.00067941396264 0 -0.1540697217 0.00073047896149 0 
-0.15413044393 0.00077417743159 0 -0.15417970717 0.00081296818098 0 -0.15422512591 0.00084626412718 0 
-0.15427094698 0.00087497115601 0 -0.15431919694 0.00089867017232 0 -0.15437072515 0.00091757852351 0 
-0.15442572534 0.00093137525255 0 -0.15448401868 0.00094003643608 0 -0.15454529226 0.00094333779998 0 
-0.15460915864 0.00094120588619 0 -0.15467518568 0.00093350640964 0 -0.15474297106 0.00092019099975 0 
-0.15481209755 0.000901208492 0 -0.15488217771 0.00087656412506 0 -0.15495279431 0.0008462893893 0 
-0.15502357483 0.00081045768457 0 -0.15509402752 0.0007691969513 0 -0.15516363084 0.00072267011274 0 
-0.15523147583 0.00067115586717 0 -0.15529614687 0.0006149673718 0 -0.15535499156 0.00055469153449 0 
-0.15540342033 0.00049093633424 0 -0.15543322265 0.0004249381891 0 -0.15543116629 0.00035777568701 0 
-0.15537576377 0.00029180405545 0 -0.1552362442 0.00022830397938 0 -0.15496870875 0.00017092368216 0 
-0.15451930463 0.00011931262998 0 -0.15382181108 7.8093653428e-05 0 -0.15281096101 4.1075876652e-05 0 
-0.15141783655 1.5081691345e-05 0 -0.14987038076 6.127335655e-05 0 -0.15125206113 0.00016131541634 0 
-0.15226778388 0.00027166877408 0 -0.1529789269 0.00035942471004 0 -0.15345558524 0.00044325034833 0 
-0.15376134217 0.00051022897242 0 -0.1539516449 0.00057021144312 0 -0.1540684998 0.00061928172363 0 
-0.15414249897 0.00066267198417 0 -0.15419360995 0.00069926434662 0 -0.15423436463 0.000731455395 0 
-0.15427187085 0.00075873028254 0 -0.15430998802 0.00078196614049 0 -0.15435051918 0.00080077833263 0 
-0.15439419448 0.00081538391532 0 -0.15444108844 0.0008254891145 0 -0.15449105203 0.00083108339459 0 
-0.15454378724 0.00083196494961 0 -0.15459893644 0.00082807574654 0 -0.1546561271 0.00081929739099 0 
-0.15471498668 0.00080559274647 0 -0.15477515757 0.000786917808 0 -0.15483631194 0.0007632827037 0 
-0.15489809215 0.00073471479118 0 -0.15496017039 0.00070128531661 0 -0.15502220392 0.00066310248803 0 
-0.15508370101 0.00062032073038 0 -0.15514393151 0.00057317368919 0 -0.15520170331 0.00052196462639 0 
-0.15525463223 0.00046719284728 0 -0.15529860556 0.00040947733214 0 -0.15532597899 0.00034990225686 0 
-0.15532417595 0.00028965697857 0 -0.15527240932 0.00023085017165 0 -0.15514026582 0.00017516154912 0 
-0.15488372743 0.00012577122834 0 -0.15444779396 8.3314407675e-05 0 -0.15376441181 5.1184102631e-05 0 
-0.15276534855 2.5224504498e-05 0 -0.15137952566 9.0424755399e-06 0 -0.1500557363 5.7913603086e-05 0 
-0.15142978728 0.00015221184003 0 -0.15242996812 0.00025535663008 0 -0.15312151611 0.00033608087688 0 
-0.15357756615 0.00041205683374 0 -0.15386429429 0.00047134229681 0 -0.15403825045 0.00052356679225 0 
-0.15414173901 0.00056530878646 0 -0.15420491993 0.00060172675876 0 -0.15424704552 0.00063188443892 0 
-0.15428000689 0.00065812119283 0 -0.15431034565 0.00067997747101 0 -0.15434153378 0.00069830135908 0 
-0.1543751061 0.00071273487993 0 -0.15441168845 0.00072349334368 0 -0.15445131063 0.00073030561907 0 
-0.15449379385 0.00073317240458 0 -0.15453885496 0.00073191110278 0 -0.15458618104 0.00072647683555 0 
-0.15463541448 0.00071676430525 0 -0.15468627214 0.00070274574682 0 -0.15473841131 0.00068438221933 0 
-0.15479154885 0.000661687518 0 -0.15484541655 0.00063468393637 0 -0.15489973128 0.00060344015947 0 
-0.15495419502 0.00056804501219 0 -0.15500845015 0.00052864471218 0 -0.15506188571 0.00048543006415 0 
-0.15511348844 0.00043869399815 0 -0.15516121686 0.00038885202957 0 -0.15520137548 0.00033652994898 0 
-0.15522693098 0.00028266536538 0 -0.1552260071 0.00022854578856 0 -0.15517862141 0.00017604988534 0 
-0.15505480766 0.00012723496184 0 -0.15481050313 8.4870473074e-05 0 -0.15438957512 5.0541093515e-05 0 
-0.1537219435 2.6549696486e-05 0 -0.15273608267 1.0648196621e-05 0 -0.15135833621 3.4720867461e-06 0 
-0.15023556352 5.508101458e-05 0 -0.15160110593 0.00014448046568 0 -0.15258443356 0.00024133661645 0 
-0.15325504541 0.00031575415051 0 -0.15368948877 0.00038461136864 0 -0.15395668149 0.00043685553828 0 
-0.15411424637 0.00048199284356 0 -0.15420471132 0.00051705271471 0 -0.15425756574 0.00054714764701 0 
-0.15429137647 0.00057149189524 0 -0.15431722999 0.00059237139067 0 -0.15434110165 0.00060936505906 0 
-0.15436604619 0.00062329234788 0 -0.15439341962 0.00063381373184 0 -0.15442365408 0.00064114219276 0 
-0.15445674956 0.00064502493478 0 -0.15449252725 0.00064547249349 0 -0.15453073382 0.00064231822034 0 
-0.15457104146 0.00063552852953 0 -0.15461318195 0.00062500883359 0 -0.15465685725 0.0006107390509 0 
-0.15470181406 0.00059268384939 0 -0.15474781394 0.00057085929438 0 -0.15479460359 0.0005452822661 0 
-0.15484197438 0.00051601848099 0 -0.1548896879 0.00048313805019 0 -0.15493747592 0.0004467794497 0 
-0.15498484671 0.0004070927389 0 -0.15503098071 0.00036436057417 0 -0.15507411957 0.00031891808612 0 
-0.15511101484 0.00027139417944 0 -0.15513525903 0.00022258397075 0 -0.15513576567 0.00017386091349 0 
-0.15509340167 0.00012688575953 0 -0.15497879684 8.4073719336e-05 0 -0.15474796295 4.7834808356e-05 0 
-0.15434363484 2.0677583962e-05 0 -0.15369352698 3.9435049075e-06 0 -0.15272246301 -2.800810762e-06 0 
-0.15135368705 -1.6789839492e-06 0 -0.1504111588 5.2758285165e-05 0 -0.15176717937 0.00013806720381 0 
-0.15273211896 0.00022949678532 0 -0.15338024497 0.00029826402897 0 -0.15379196405 0.00036065911991 0 
-0.15403904021 0.00040644448018 0 -0.15418021381 0.00044510237058 0 -0.15425795317 0.00047407040256 0 
-0.15430106223 0.00049844000023 0 -0.15432718396 0.0005175434635 0 -0.15434657037 0.00053361651953 0 
-0.15436464548 0.00054625945631 0 -0.15438404679 0.00055626354879 0 -0.15440587699 0.00056330027292 0 
-0.15443044901 0.00056758028222 0 -0.15445774794 0.00056886480888 0 -0.15448755026 0.00056717317784 0 
-0.15451963246 0.0005623519537 0 -0.15455369651 0.00055437715491 0 -0.154589504 0.00054316275055 0 
-0.15462680161 0.0005286950036 0 -0.15466535091 0.00051094056107 0 -0.1547049731 0.00048991735093 0 
-0.15474545956 0.00046563593787 0 -0.15478666127 0.00043815909885 0 -0.15482835472 0.00040753907524 0 
-0.15487037599 0.00037390700891 0 -0.15491235256 0.00033737442573 0 -0.15495362878 0.0002982141159 0 
-0.15499272943 0.00025668373564 0 -0.15502683818 0.00021341214597 0 -0.1550502032 0.00016905457596 0 
-0.15505257249 0.00012505840277 0 -0.15501578152 8.2873528299e-05 0 -0.15491120517 4.5255761506e-05 0 
-0.15469507873 1.4295199435e-05 0 -0.15430901945 -6.578794455e-06 0 -0.1536783576 -1.684928975e-05 0 
-0.15272393823 -1.5244512724e-05 0 -0.15136508644 -6.4590822149e-06 0 -0.15058386326 5.0931797887e-05 0 
-0.15192918479 0.00013292522635 0 -0.15287391841 0.00021973210096 0 -0.15349780023 0.00028343318263 0 
-0.15388551354 0.00033994513797 0 -0.15411189198 0.0003797832469 0 -0.15423662961 0.00041250727372 0 
-0.1543020308 0.00043591926806 0 -0.15433591604 0.00045511173084 0 -0.15435498953 0.00046950081014 0 
-0.15436859429 0.00048127403716 0 -0.1543815136 0.00049003603635 0 -0.15439599752 0.00049655098701 0 
-0.15441291034 0.00050049432321 0 -0.15443247557 0.00050207442837 0 -0.15445461869 0.00050106301205 0 
-0.1544791311 0.00049748725723 0 -0.15450575948 0.00049120426411 0 -0.1545342803 0.00048219843302 0 
-0.15456447005 0.00047039028141 0 -0.15459609032 0.00045577119454 0 -0.15462897718 0.00043830869254 0 
-0.15466293693 0.00041802151827 0 -0.15469783545 0.0003949138918 0 -0.15473353863 0.00036904541776 0 
-0.15476989746 0.00034045119537 0 -0.15480679274 0.00030925590545 0 -0.15484397113 0.00027553431573 0 
-0.15488091111 0.0002395502961 0 -0.15491645038 0.00020148651674 0 -0.15494817495 0.00016196927754 0 
-0.15497100353 0.00012151518604 0 -0.15497559309 8.1632686488e-05 0 -0.15494482219 4.3565814849e-05 0 
-0.15485103428 1.0386476788e-05 0 -0.15465080738 -1.6082123693e-05 0 -0.15428481996 -3.149524855e-05 0 
-0.1536757648 -3.6055105738e-05 0 -0.15273994207 -2.6834590244e-05 0 -0.15139216185 -1.0935661521e-05 0 
-0.1507550776 4.9592836149e-05 0 -0.15208826959 0.00012901709124 0 -0.15301069617 0.00021194606961 0 
-0.15360827744 0.00027108701761 0 -0.15397061408 0.00032221339643 0 -0.15417566895 0.00035654311068 0 
-0.15428397059 0.00038381761988 0 -0.15433742106 0.00040215690387 0 -0.15436269343 0.00041667348705 0 
-0.15437534451 0.00042683031643 0 -0.15438377857 0.0004347684735 0 -0.15439215302 0.00044007971883 0 
-0.15440231562 0.00044350285316 0 -0.1544149071 0.00044471034198 0 -0.15443007648 0.00044390928815 0 
-0.15444767475 0.00044087818242 0 -0.1544674933 0.00043565165834 0 -0.1544893235 0.00042809473234 0 
-0.15451295674 0.00041819910984 0 -0.1545381546 0.00040588993579 0 -0.15456476808 0.00039116266998 0 
-0.15459263325 0.00037398451241 0 -0.1546216011 0.00035437449696 0 -0.15465153754 0.0003323298879 0 
-0.15468236804 0.00030790743767 0 -0.15471400321 0.00028112548171 0 -0.15474635363 0.00025210322929 0 
-0.15477925539 0.00022088042169 0 -0.15481236577 0.00018771323084 0 -0.15484474599 0.00015271136363 0 
-0.1548743993 0.00011649733642 0 -0.15489695966 7.9447869211e-05 0 -0.15490399301 4.3122388888e-05 0 
-0.15487958491 8.5538595158e-06 0 -0.15479722619 -2.0881770979e-05 0 -0.15461412072 -4.3594307499e-05 0 
-0.15427008271 -5.4340704082e-05 0 -0.15368494391 -5.3923995438e-05 0 -0.15277005732 -3.7747242459e-05 0 
-0.15143471956 -1.5178860849e-05 0 -0.15092627704 4.8739391787e-05 0 -0.15224567056 0.00012631749269 0 
-0.153143242 0.00020605242753 0 -0.15371218324 0.00026105318102 0 -0.15404757857 0.00030720519135 0 
-0.15423069894 0.00033639071626 0 -0.15432263911 0.00035864050733 0 -0.15436460078 0.00037234011688 0 
-0.15438187122 0.00038263777969 0 -0.15438874066 0.00038900261279 0 -0.15439262986 0.0003935310524 0 
-0.15439704061 0.00039578456199 0 -0.1544034332 0.00039647915401 0 -0.15441226959 0.0003952778643 0 
-0.15442356467 0.00039238779573 0 -0.15443718433 0.00038759075687 0 -0.15445290506 0.00038092856994 0 
-0.15447051823 0.00037227169378 0 -0.15448983014 0.00036161806202 0 -0.15451066196 0.00034889575909 0 
-0.15453286469 0.00033410324249 0 -0.15455630422 0.00031720616971 0 -0.15458084643 0.00029822328361 0 
-0.15460641682 0.00027714451426 0 -0.15463295579 0.00025402370375 0 -0.15466040373 0.0002288629039 0 
-0.15468873084 0.00020177690021 0 -0.1547178328 0.00017277162988 0 -0.15474751592 0.00014209758956 0 
-0.15477707982 0.00010979281069 0 -0.15480494499 7.6476055256e-05 0 -0.15482738614 4.2381507228e-05 0 
-0.15483699739 9.1101182988e-06 0 -0.1548191905 -2.2526553948e-05 0 -0.15474881232 -4.8856723879e-05 0 
-0.15458397567 -6.8533241574e-05 0 -0.15426382422 -7.5382362411e-05 0 -0.1537052393 -7.0683207014e-05 0 
-0.15281395614 -4.8133890232e-05 0 -0.15149269998 -1.9254219296e-05 0 -0.1510990411 4.8378260544e-05 0 
-0.15240256488 0.00012481590966 0 -0.15327227116 0.0002019747626 0 -0.15380989015 0.00025315707899 0 
-0.15411667526 0.00029465285479 0 -0.15427723527 0.00031898115412 0 -0.15435296297 0.00033657351742 0 
-0.15438397229 0.00034601867083 0 -0.15439389646 0.00035251313238 0 -0.1543956548 0.00035548678716 0 
-0.15439558029 0.00035699424916 0 -0.15439657867 0.00035654864041 0 -0.15439973772 0.000354847376 0 
-0.15440532565 0.00035153731005 0 -0.15441328287 0.00034682767 0 -0.15442344546 0.00034049997339 0 
-0.15443558991 0.00033260323107 0 -0.1544495225 0.00032301069587 0 -0.15446506441 0.00031172577292 0 
-0.15448206663 0.00029867741978 0 -0.15450039506 0.00028386618942 0 -0.15451994538 0.00026725491625 0 
-0.15454061329 0.00024886155734 0 -0.15456233919 0.00022866777726 0 -0.15458507836 0.00020672491519 0 
-0.15460883081 0.00018301846285 0 -0.15463358164 0.00015766020806 0 -0.15465933084 0.00013062295329 0 
-0.15468594432 0.000102154052 0 -0.15471297503 7.2220587754e-05 0 -0.15473923087 4.1438961489e-05 0 
-0.15476164222 9.8970731415e-06 0 -0.15477386117 -2.07726589e-05 0 -0.15476273 -4.9990012485e-05 0 
-0.15470474958 -7.3820949183e-05 0 -0.15455922484 -9.1153255198e-05 0 -0.15426501632 -9.4846567663e-05 0 
-0.15373595059 -8.6550251581e-05 0 -0.15287144482 -5.8154237195e-05 0 -0.15156631172 -2.3232474632e-05 0 
-0.15127506852 4.8529287596e-05 0 -0.15256017447 0.00012452185911 0 -0.15339837968 0.00019964875537 0 
-0.153901577 0.00024721896625 0 -0.15417796373 0.0002842755348 0 -0.15431544185 0.00030395374051 0 
-0.15437522531 0.00031720133848 0 -0.15439592302 0.00032273220131 0 -0.15439921618 0.00032580108382 0 
-0.15439651906 0.00032574727084 0 -0.1543930918 0.00032458873466 0 -0.15439121425 0.00032177119283 0 
-0.15439163148 0.00031797960401 0 -0.1543944478 0.00031283765566 0 -0.1543995589 0.00030655946466 0 
-0.15440674126 0.00029892244493 0 -0.15441578627 0.00028998285416 0 -0.15442653 0.00027961411979 0 
-0.15443880856 0.00026782407076 0 -0.15445247293 0.00025454052957 0 -0.15446743369 0.00023976527154 0 
-0.15448357165 0.00022345666366 0 -0.15450084209 0.00020563120779 0 -0.15451918542 0.00018626151723 0 
-0.15453860164 0.00016539631179 0 -0.15455907583 0.00014300414477 0 -0.15458066761 0.00011919510871 0 
-0.15460339189 9.390879859e-05 0 -0.15462726355 6.7392982601e-05 0 -0.15465198457 3.9542734157e-05 0 
-0.1546767652 1.0977510101e-05 0 -0.15469914675 -1.8371802071e-05 0 -0.15471386909 -4.6838424169e-05 0 
-0.15470933914 -7.4110721471e-05 0 -0.15466398001 -9.6001786005e-05 0 -0.15453873575 -0.00011166059267 0 
-0.15427258611 -0.00011293369607 0 -0.15377636254 -0.00010173753981 0 -0.15294241905 -6.7977736762e-05 0 
-0.1516558975 -2.7193582355e-05 0 -0.15145626664 4.9229478464e-05 0 -0.152719751 0.00012546651124 0 
-0.15352201462 0.00019901372434 0 -0.15398722887 0.00024303505779 0 -0.15423135459 0.00027575678541 0 
-0.15434536338 0.00029090803582 0 -0.15438964963 0.00030007254099 0 -0.1544007808 0.00030198684544 0 
-0.1543982327 0.00030197354499 0 -0.15439175069 0.00029922201065 0 -0.15438555181 0.0002957227407 0 
-0.15438131988 0.00029083353002 0 -0.15437945724 0.00028523549554 0 -0.15437997878 0.00027852132916 0 
-0.15438267589 0.00027091361699 0 -0.15438732505 0.00026218118728 0 -0.15439374745 0.00025238795206 0 
-0.15440176427 0.00024140422465 0 -0.15441121161 0.00022924142831 0 -0.15442200005 0.00021582406771 0 
-0.15443402529 0.0002011537581 0 -0.15444721282 0.00018518297293 0 -0.15446150303 0.00016792584211 0 
-0.15447688103 0.00014934460341 0 -0.15449334681 0.00012948528456 0 -0.15451093018 0.00010829850362 0 
-0.15452970564 8.5893887444e-05 0 -0.1545497328 6.2177212385e-05 0 -0.15457110107 3.7399855501e-05 0 
-0.15459370613 1.1384816389e-05 0 -0.15461705625 -1.5243013877e-05 0 -0.15463933349 -4.2713003495e-05 0 
-0.15465635061 -6.9330948463e-05 0 -0.15465816855 -9.5085051726e-05 0 -0.1546254456 -0.00011555400124 0 
-0.15452122688 -0.00013019969629 0 -0.1542853415 -0.00012979860185 0 -0.15382570028 -0.00011644599726 0 
-0.15302687883 -7.7786804468e-05 0 -0.15176215768 -3.1231425965e-05 0 -0.15164470673 5.0546721468e-05 0 
-0.15288247168 0.00012771690672 0 -0.15364333987 0.00020002030942 0 -0.15406653285 0.00024037594267 0 
-0.15427653491 0.00026874383911 0 -0.15436689556 0.00027940431028 0 -0.15439637005 0.00028470196412 0 
-0.15439885855 0.00028325757012 0 -0.15439130366 0.00028047469095 0 -0.15438176692 0.00027532325475 0 
-0.15437337756 0.00026978232199 0 -0.15436729789 0.00026309888926 0 -0.1543636322 0.00025596175692 0 
-0.1543622911 0.00024792359909 0 -0.15436299145 0.0002392197639 0 -0.15436556935 0.00022960526985 0 
-0.15436977148 0.00021915187244 0 -0.15437547863 0.0002077233803 0 -0.15438254178 0.00019533357408 0 
-0.15439085662 0.00018190107949 0 -0.15440036356 0.00016742607113 0 -0.15441097319 0.00015185309167 0 
-0.1544226706 0.00013519286586 0 -0.1544354409 0.00011739554611 0 -0.15444931388 9.8504155176e-05 0 
-0.15446431935 7.8449520515e-05 0 -0.15448054671 5.7342367654e-05 0 -0.15449813008 3.5051711166e-05 0 
-0.15451720357 1.1839178114e-05 0 -0.15453779697 -1.255233019e-05 0 -0.15455971658 -3.747658775e-05 0 
-0.1545817107 -6.3343082729e-05 0 -0.15460067987 -8.8416090875e-05 0 -0.15460838377 -0.00011303845531 0 
-0.15458801389 -0.00013255968224 0 -0.15450535715 -0.00014685138012 0 -0.15430185199 -0.00014554918744 0 
-0.15388303995 -0.00013087227126 0 -0.15312489867 -8.7790795078e-05 0 -0.15188606083 -3.5467361158e-05 0 
-0.15184292197 5.258803867e-05 0 -0.1530495286 0.00013136176858 0 -0.15376220644 0.00020258002041 0 
-0.15413884819 0.00023890768352 0 -0.15431296825 0.00026276084827 0 -0.15437984467 0.00026887332206 0 
-0.15439546108 0.0002704821527 0 -0.15439039469 0.00026590185007 0 -0.15437875688 0.00026063923724 0 
-0.15436691046 0.00025336217368 0 -0.15435692668 0.00024606331135 0 -0.154349491 0.0002378521458 0 
-0.15434448421 0.00022943977092 0 -0.15434169769 0.00022032797278 0 -0.15434086323 0.00021076925623 0 
-0.1543417424 0.00020049877639 0 -0.15434415638 0.0001895960304 0 -0.15434794128 0.00017791450955 0 
-0.15435300767 0.00016546885308 0 -0.15435923636 0.00015216923202 0 -0.15436656773 0.00013801270688 0 
-0.15437497199 0.00012293391046 0 -0.15438440442 0.00010693870718 0 -0.15439487994 8.9963439677e-05 0 
-0.15440642834 7.2047114372e-05 0 -0.15441910923 5.3098956414e-05 0 -0.15443304181 3.323070996e-05 0 
-0.1544483602 1.2273110769e-05 0 -0.15446528792 -9.5008535936e-06 0 -0.15448391438 -3.2429270505e-05 0 
-0.15450434387 -5.5837295804e-05 0 -0.15452581644 -8.032770711e-05 0 -0.15454624593 -0.00010410934192 0 
-0.15455915034 -0.00012794266513 0 -0.15455055237 -0.00014694554557 0 -0.15448957682 -0.00016155139019 0 
-0.15432047844 -0.00016017192684 0 -0.15394720435 -0.00014516159717 0 -0.15323664248 -9.8213618912e-05 0 
-0.15202909708 -4.005926894e-05 0 -0.152053684 5.5558790336e-05 0 -0.15322178602 0.00013656751253 0 
-0.15387777984 0.00020661886083 0 -0.15420287848 0.00023823647643 0 -0.15433970094 0.00025726825697 0 
-0.15438383818 0.0002586809569 0 -0.15438693762 0.00025674980134 0 -0.15437565744 0.00024922101875 0 
-0.1543609947 0.00024174705322 0 -0.15434761345 0.00023259592126 0 -0.154336676 0.00022381075541 0 
-0.15432842076 0.00021433302027 0 -0.1543225348 0.00020491283794 0 -0.1543187499 0.00019498843176 0 
-0.15431678295 0.00018483324675 0 -0.15431639552 0.0001741557935 0 -0.1543173939 0.00016304227756 0 
-0.15431967378 0.00015133178385 0 -0.15432308614 0.00013903765648 0 -0.15432757139 0.00012605897791 0 
-0.15433308482 0.00011238751904 0 -0.15433956683 9.7945972811e-05 0 -0.15434701741 8.2733429736e-05 0 
-0.15435546637 6.6670319939e-05 0 -0.1543649286 4.9790305638e-05 0 -0.15437549353 3.1977808248e-05 0 
-0.15438729525 1.3346588275e-05 0 -0.15440048277 -6.3179982135e-06 0 -0.15441529453 -2.6723449992e-05 0 
-0.15443195403 -4.8301903007e-05 0 -0.15445074439 -7.0330119343e-05 0 -0.15447132289 -9.3631475465e-05 0 
-0.15449257195 -0.00011632582027 0 -0.15450972319 -0.00013967561244 0 -0.15451186895 -0.00015854023513 0 
-0.15447215736 -0.00017414453032 0 -0.15433910489 -0.00017357213073 0 -0.15401650965 -0.00015945808263 0 
-0.15336209536 -0.00010934795137 0 -0.15219315886 -4.52599852e-05 0 -0.152280882 5.9768062783e-05 0 
-0.15340015292 0.00014343121438 0 -0.15398868918 0.00021177453164 0 -0.15425693989 0.00023752267589 0 
-0.15435564518 0.00025125709362 0 -0.15437838435 0.00024772714823 0 -0.15437078476 0.00024240583298 0 
-0.15435479581 0.00023211374355 0 -0.15433824062 0.00022271553462 0 -0.15432417393 0.0002119638375 0 
-0.15431292355 0.00020199696883 0 -0.15430438519 0.00019155348127 0 -0.1542981118 0.00018143767375 0 
-0.15429380536 0.00017101060075 0 -0.15429112315 0.00016056785535 0 -0.15428987145 0.00014978508989 0 
-0.15428987145 0.00013875278819 0 -0.15429097414 0.00012729263108 0 -0.15429310501 0.00011541417189 0 
-0.15429617465 0.00010300381109 0 -0.15430013835 9.0045999968e-05 0 -0.15430499613 7.6450589404e-05 0 
-0.15431070328 6.2207953306e-05 0 -0.15431731939 4.7221805289e-05 0 -0.15432488918 3.1518076867e-05 0 
-0.15433347225 1.4955420738e-05 0 -0.15434323251 -2.353863465e-06 0 -0.15435433388 -2.067137757e-05 0 
-0.15436704457 -3.9686405216e-05 0 -0.15438164771 -5.9932517615e-05 0 -0.15439856052 -8.0626618001e-05 0 
-0.15441781282 -0.00010283977463 0 -0.15443910658 -0.00012456410332 0 -0.15445931256 -0.00014766652021 0 
-0.15447069705 -0.00016669578326 0 -0.15445111692 -0.00018399697728 0 -0.15435513854 -0.00018520219601 0 
-0.15408867598 -0.00017361262871 0 -0.1535012871 -0.00012141425395 0 -0.15238127112 -5.142527516e-05 0 
-0.15252830088 6.5961357905e-05 0 -0.15358364582 0.00015231320867 0 -0.15409137309 0.00021783502598 0 
-0.15429782867 0.00023596035317 0 -0.15435898304 0.00024377922819 0 -0.15436284244 0.00023496551148 0 
-0.15434703231 0.00022638824885 0 -0.15432822704 0.00021349004237 0 -0.15431115031 0.00020244531333 0 
-0.15429736674 0.00019037233142 0 -0.1542865634 0.00017954826762 0 -0.15427836776 0.00016847746156 0 
-0.15427227318 0.00015802372945 0 -0.15426790714 0.00014746017405 0 -0.15426498652 0.00013709861378 0 
-0.15426328778 0.00012657752086 0 -0.15426266193 0.00011598567653 0 -0.15426297486 0.00010512569861 0 
-0.15426413715 9.3999413366e-05 0 -0.1542660892 8.2480073615e-05 0 -0.15426880121 7.0542300818e-05 0 
-0.15427224338 5.8083089243e-05 0 -0.15427644551 4.5081815188e-05 0 -0.15428140759 3.1425312045e-05 0 
-0.15428720415 1.7128666514e-05 0 -0.15429390967 2.0233646865e-06 0 -0.15430167317 -1.3784107978e-05 0 
-0.15431067348 -3.0605919164e-05 0 -0.15432117879 -4.8117817641e-05 0 -0.15433350205 -6.6963475547e-05 0 
-0.1543481797 -8.6295134679e-05 0 -0.15436549485 -0.00010745786858 0 -0.15438582003 -0.00012827666069 0 
-0.15440750122 -0.00015133121633 0 -0.15442588925 -0.00017077430675 0 -0.15442417562 -0.00019049968978 0 
-0.1543648988 -0.00019452009292 0 -0.1541596204 -0.00018760579405 0 -0.1536527127 -0.00013488462719 0 
-0.15259668231 -5.9342914028e-05 0 -0.15280401707 7.5049960287e-05 0 -0.15377193689 0.00016248739848 0 
-0.15418179333 0.00022256201191 0 -0.15432226658 0.00023046343995 0 -0.15434800088 0.00023168549524 0 
-0.15433646739 0.00021739811928 0 -0.15431544185 0.00020594248781 0 -0.15429589152 0.00019086859538 0 
-0.15427973866 0.00017870821466 0 -0.15426728129 0.00016585347475 0 -0.15425775945 0.00015472165251 0 
-0.15425059199 0.00014357551117 0 -0.15424525738 0.00013332050003 0 -0.15424138308 0.00012314745982 0 
-0.15423868597 0.00011337030446 0 -0.15423697233 0.00010359676526 0 -0.15423609316 9.3907146947e-05 0 
-0.15423595905 8.4090461314e-05 0 -0.15423646569 7.4138901255e-05 0 -0.15423759818 6.3917388616e-05 0 
-0.15423929691 5.3390995163e-05 0 -0.15424154699 4.2448580643e-05 0 -0.15424439311 3.1058934837e-05 0 
-0.15424783528 1.9097225959e-05 0 -0.1542519331 6.5661483859e-06 0 -0.15425679088 -6.7238306656e-06 0 
-0.15426251292 -2.0677978682e-05 0 -0.15426929295 -3.5651606595e-05 0 -0.15427738428 -5.1320505008e-05 0 
-0.15428714454 -6.8430534157e-05 0 -0.15429909527 -8.6088111857e-05 0 -0.15431375802 -0.00010591506725 0 
-0.15433195233 -0.00012557201262 0 -0.1543532759 -0.0001484342647 0 -0.15437594056 -0.0001682217262 0 
-0.15438878536 -0.00019087131659 0 -0.15436424315 -0.00019872597477 0 -0.15422450006 -0.00019940808124 0 
-0.15381516516 -0.00014915360953 0 -0.15284663439 -6.9971007179e-05 0 -0.15311023593 9.0913737949e-05 0 
-0.15395379066 0.00017542626301 0 -0.15424856544 0.00022595321934 0 -0.15432360768 0.00021991200629 0 
-0.15432062745 0.00021348882001 0 -0.15429970622 0.00019334525859 0 -0.15427781641 0.00017919966194 0 
-0.15426020324 0.00016236315423 0 -0.1542467922 0.0001495998149 0 -0.15423683822 0.00013660539116 0 
-0.15422946215 0.0001258157281 0 -0.15422397852 0.00011529757467 0 -0.15421995521 0.00010591947648 0 
-0.15421700478 9.6817740996e-05 0 -0.15421491861 8.8270266133e-05 0 -0.15421353281 7.987045683e-05 0 
-0.15421274304 7.1675880463e-05 0 -0.15421244502 6.3472922193e-05 0 -0.15421257913 5.5241362134e-05 0 
-0.15421313047 4.6846544137e-05 0 -0.15421406925 3.8245649193e-05 0 -0.15421536565 2.9327702578e-05 0 
-0.15421706438 2.0052500986e-05 0 -0.15421918035 1.0292991647e-05 0 -0.15422174335 3.6236716738e-08 0 
-0.15422485769 -1.0915349776e-05 0 -0.15422859788 -2.2494326913e-05 0 -0.15423312783 -3.5080025555e-05 0 
-0.15423868597 -4.8387410061e-05 0 -0.1542455852 -6.3234030677e-05 0 -0.15425427258 -7.8760254837e-05 0 
-0.15426544845 -9.681503434e-05 0 -0.15427999198 -0.0001150199023 0 -0.15429857373 -0.00013750814833 0 
-0.15432137251 -0.00015770146274 0 -0.154343009 -0.0001839093311 0 -0.15434665978 -0.00019692175556 0 
-0.15427199006 -0.00020917938673 0 -0.15397751331 -0.00016578889336 0 -0.15313346684 -8.7227010226e-05 0 
-0.15347768366 0.00011126797472 0 -0.15412479639 0.00017793022562 0 -0.15428170562 0.00020979970577 0 
-0.15429517627 0.00018848534091 0 -0.15427292883 0.00017582491273 0 -0.15424975753 0.00015278666979 0 
-0.15423198044 0.0001384056086 0 -0.15421941876 0.00012236465409 0 -0.1542109251 0.00011094311776 0 
-0.15420496464 9.9644472357e-05 0 -0.15420089662 9.0636094683e-05 0 -0.15419796109 8.204945334e-05 0 
-0.15419590473 7.4612195021e-05 0 -0.15419441462 6.7530927481e-05 0 -0.15419338644 6.101906547e-05 0 
-0.15419268608 5.4716281738e-05 0 -0.15419226885 4.8656260333e-05 0 -0.15419207513 4.2654679419e-05 0 
-0.15419209003 3.6686204112e-05 0 -0.15419228375 3.0636601878e-05 0 -0.15419265628 2.4464556191e-05 0 
-0.15419319272 1.8076087144e-05 0 -0.15419389307 1.1431537132e-05 0 -0.15419478714 4.4216890274e-06 0 
-0.15419588983 -2.9742702736e-06 0 -0.15419726074 -1.0930020835e-05 0 -0.15419894457 -1.9405844796e-05 0 
-0.15420106053 -2.8744056181e-05 0 -0.15420371294 -3.8727066567e-05 0 -0.15420719981 -5.0117818319e-05 0 
-0.15421178937 -6.2195402279e-05 0 -0.15421821177 -7.6772237662e-05 0 -0.15422715247 -9.1720634373e-05 0 
-0.15424008667 -0.00011142211588 0 -0.15425823629 -0.00012972448894 0 -0.15428167582 -0.00015668732522 0 
-0.15430422127 -0.00017362418293 0 -0.15429086983 -0.00019895345031 0 -0.15413412452 -0.00017172700609 0 
-0.15348662436 -0.00010887757526 0 -0.15384690464 0.00018857597024 0 -0.15421767533 0.00020227029745 0 
-0.15425844491 0.0001882295328 0 -0.15424193442 0.00014060772082 0 -0.15422050655 0.00011640362936 0 
-0.15420509875 9.1619658633e-05 0 -0.1541954875 7.815889694e-05 0 -0.15418940783 6.586422387e-05 0 
-0.15418587625 5.8086858189e-05 0 -0.15418361127 5.106412209e-05 0 -0.15418229997 4.5882399718e-05 0 
-0.1541814059 4.1143819544e-05 0 -0.15418088436 3.720492532e-05 0 -0.15418051183 3.3522326703e-05 0 
-0.15418028831 3.019999167e-05 0 -0.1541801393 2.700967525e-05 0 -0.1541800499 2.3967670131e-05 0 
-0.15418002009 2.0965317162e-05 0 -0.15418002009 1.7989956177e-05 0 -0.1541800499 1.4978054423e-05 0 
-0.1541801095 1.1909011846e-05 0 -0.15418019891 8.7317566795e-06 0 -0.15418031812 5.426476946e-06 0 
-0.15418048203 1.9321450964e-06 0 -0.15418067575 -1.7617572894e-06 0 -0.15418094397 -5.7586157709e-06 0 
-0.15418127179 -1.0039438166e-05 0 -0.15418174863 -1.4823252059e-05 0 -0.15418238938 -2.0004772523e-05 0 
-0.15418335795 -2.6111423722e-05 0 -0.15418477356 -3.2791798731e-05 0 -0.15418711305 -4.1413630242e-05 0 
-0.15419071913 -5.0914601161e-05 0 -0.15419685841 -6.4994354034e-05 0 -0.15420654416 -8.0375793914e-05 0 
-0.15422198176 -0.00010707271576 0 -0.15424349904 -0.00013338416466 0 -0.15426002443 -0.00018296058988 0 
-0.15421931446 -0.00019932076975 0 -0.15384827554 -0.00018744438421 0 
ManningN 1 12320 double
0.02 0.02 0.02 0.02 0.02 0.02 0.02 0.02 0.02 
0.02 0.02 0.02 0.02 0.02 0.02 0.02 0.02 0.02 
0.02 0.02 0.02 0.02 0.02 0.02 0.02 0.02 0.02 
0.02 0.02 0.02 0.02 0.02 0.02 0.02 0.02 0.02 
0.02 0.02 0.02 0.02 0.02 0.02 0.02 0.02 0.02 
0.02 0.02 0.02 0.02 0.02 0.02 0.02 0.02 0.02 
0.02 0.02 0.02 0.02 0.02 0.02 0.02 0.02 0.02 
0.02 0.02 0.02 0.02 0.02 0.02 0.02 0.02 0.02 
0.02 0.02 0.02 0.02 0.02 0.02 0.02 0.02 0.02 
0.02 0.02 0.02 0.02 0.02 0.02 0.02 0.02 0.02 
0.02 0.02 0.02 0.02 0.02 0.02 0.02 0.02 0.02 
0.02 0.02 0.02 0.02 0.02 0.02 0.02 0.02 0.02 
0.02 0.02 0.02 0.02 0.02 0.02 0.02 0.02 0.02 
0.02 0.02 0.02 0.02 0.02 0.02 0.02 0.02 0.02 
0.02 0.02 0.02 0.02 0.02 0.02 0.02 0.02 0.02 
0.02 0.02 0.02 0.02 0.02 0.02 0.02 0.02 0.02 
0.02 0.02 0.02 0.02 0.02 0.02 0.02 0.02 0.02 
0.02 0.02 0.02 0.02 0.02 0.02 0.02 0.02 0.02 
0.02 0.02 0.02 0.02 0.02 0.02 0.02 0.02 0.02 
0.02 0.02 0.02 0.02 0.02 0.02 0.02 0.02 0.02 
0.02 0.02 0.02 0.02 0.02 0.02 0.02 0.02 0.02 
0.02 0.02 0.02 0.02 0.02 0.02 0.02 0.02 0.02 
0.02 0.02 0.02 0.02 0.02 0.02 0.02 0.02 0.02 
0.02 0.02 0.02 0.02 0.02 0.02 0.02 0.02 0.02 
0.02 0.02 0.02 0.02 0.02 0.02 0.02 0.02 0.02 
0.02 0.02 0.02 0.02 0.02 0.02 0.02 0.02 0.02 
0.02 0.02 0.02 0.02 0.02 0.02 0.02 0.02 0.02 
0.02 0.02 0.02 0.02 0.02 0.02 0.02 0.02 0.02 
0.02 0.02 0.02 0.02 0.02 0.02 0.02 0.02 0.02 
0.02 0.02 0.02 0.02 0.02 0.02 0.02 0.02 0.02 
0.02 0.02 0.02 0.02 0.02 0.02 0.02 0.02 0.02 
0.02 0.02 0.02 0.02 0.02 0.02 0.02 0.02 0.02 
0.02 0.02 0.02 0.02 0.02 0.02 0.02 0.02 0.02 
0.02 0.02 0.02 0.02 0.02 0.02 0.02 0.02 0.02 
0.02 0.02 0.02 0.02 0.02 0.02 0.02 0.02 0.02 
0.02 0.02 0.02 0.02 0.02 0.02 0.02 0.02 0.02 
0.02 0.02 0.02 0.02 0.02 0.02 0.02 0.02 0.02 
0.02 0.02 0.02 0.02 0.02 0.02 0.02 0.02 0.02 
0.02 0.02 0.02 0.02 0.02 0.02 0.02 0.02 0.02 
0.02 0.02 0.02 0.02 0.02 0.02 0.02 0.02 0.02 
0.02 0.02 0.02 0.02 0.02 0.02 0.02 0.02 0.02 
0.02 0.02 0.02 0.02 0.02 0.02 0.02 0.02 0.02 
0.02 0.02 0.02 0.02 0.02 0.02 0.02 0.02 0.02 
0.02 0.02 0.02 0.02 0.02 0.02 0.02 0.02 0.02 
0.02 0.02 0.02 0.02 0.02 0.02 0.02 0.02 0.02 
0.02 0.02 0.02 0.02 0.02 0.02 0.02 0.02 0.02 
0.02 0.02 0.02 0.02 0.02 0.02 0.02 0.02 0.02 
0.02 0.02 0.02 0.02 0.02 0.02 0.02 0.02 0.02 
0.02 0.02 0.02 0.02 0.02 0.02 0.02 0.02 0.02 
0.02 0.02 0.02 0.02 0.02 0.02 0.02 0.02 0.02 
0.02 0.02 0.02 0.02 0.02 0.02 0.02 0.02 0.02 
0.02 0.02 0.02 0.02 0.02 0.02 0.02 0.02 0.02 
0.02 0.02 0.02 0.02 0.02 0.02 0.02 0.02 0.02 
0.02 0.02 0.02 0.02 0.02 0.02 0.02 0.02 0.02 
0.02 0.02 0.02 0.02 0.02 0.02 0.02 0.02 0.02 
0.02 0.02 0.02 0.02 0.02 0.02 0.02 0.02 0.02 
0.02 0.02 0.02 0.02 0.02 0.02 0.02 0.02 0.02 
0.02 0.02 0.02 0.02 0.02 0.02 0.02 0.02 0.02 
0.02 0.02 0.02 0.02 0.02 0.02 0.02 0.02 0.02 
0.02 0.02 0.02 0.02 0.02 0.02 0.02 0.02 0.02 
0.02 0.02 0.02 0.02 0.02 0.02 0.02 0.02 0.02 
0.02 0.02 0.02 0.02 0.02 0.02 0.02 0.02 0.02 
0.02 0.02 0.02 0.02 0.02 0.02 0.02 0.02 0.02 
0.02 0.02 0.02 0.02 0.02 0.02 0.02 0.02 0.02 
0.02 0.02 0.02 0.02 0.02 0.02 0.02 0.02 0.02 
0.02 0.02 0.02 0.02 0.02 0.02 0.02 0.02 0.02 
0.02 0.02 0.02 0.02 0.02 0.02 0.02 0.02 0.02 
0.02 0.02 0.02 0.02 0.02 0.02 0.02 0.02 0.02 
0.02 0.02 0.02 0.02 0.02 0.02 0.02 0.02 0.02 
0.02 0.02 0.02 0.02 0.02 0.02 0.02 0.02 0.02 
0.02 0.02 0.02 0.02 0.02 0.02 0.02 0.02 0.02 
0.02 0.02 0.02 0.02 0.02 0.02 0.02 0.02 0.02 
0.02 0.02 0.02 0.02 0.02 0.02 0.02 0.02 0.02 
0.02 0.02 0.02 0.02 0.02 0.02 0.02 0.02 0.02 
0.02 0.02 0.02 0.02 0.02 0.02 0.02 0.02 0.02 
0.02 0.02 0.02 0.02 0.02 0.02 0.02 0.02 0.02 
0.02 0.02 0.02 0.02 0.02 0.02 0.02 0.02 0.02 
0.02 0.02 0.02 0.02 0.02 0.02 0.02 0.02 0.02 
0.02 0.02 0.02 0.02 0.02 0.02 0.02 0.02 0.02 
0.02 0.02 0.02 0.02 0.02 0.02 0.02 0.02 0.02 
0.02 0.02 0.02 0.02 0.02 0.02 0.02 0.02 0.02 
0.02 0.02 0.02 0.02 0.02 0.02 0.02 0.02 0.02 
0.02 0.02 0.02 0.02 0.02 0.02 0.02 0.02 0.02 
0.02 0.02 0.02 0.02 0.02 0.02 0.02 0.02 0.02 
0.02 0.02 0.02 0.02 0.02 0.02 0.02 0.02 0.02 
0.02 0.02 0.02 0.02 0.02 0.02 0.02 0.02 0.02 
0.02 0.02 0.02 0.02 0.02 0.02 0.02 0.02 0.02 
0.02 0.02 0.02 0.02 0.02 0.02 0.02 0.02 0.02 
0.02 0.02 0.02 0.02 0.02 0.02 0.02 0.02 0.02 
0.02 0.02 0.02 0.02 0.02 0.02 0.02 0.02 0.02 
0.02 0.02 0.02 0.02 0.02 0.02 0.02 0.02 0.02 
0.02 0.02 0.02 0.02 0.02 0.02 0.02 0.02 0.02 
0.02 0.02 0.02 0.02 0.02 0.02 0.02 0.02 0.02 
0.02 0.02 0.02 0.02 0.02 0.02 0.02 0.02 0.02 
0.02 0.02 0.02 0.02 0.02 0.02 0.02 0.02 0.02 
0.02 0.02 0.02 0.02 0.02 0.02 0.02 0.02 0.02 
0.02 0.02 0.02 0.02 0.02 0.02 0.02 0.02 0.02 
0.02 0.02 0.02 0.02 0.02 0.02 0.02 0.02 0.02 
0.02 0.02 0.02 0.02 0.02 0.02 0.02 0.02 0.02 
0.02 0.02 0.02 0.02 0.02 0.02 0.02 0.02 0.02 
0.02 0.02 0.02 0.02 0.02 0.02 0.02 0.02 0.02 
0.02 0.02 0.02 0.02 0.02 0.02 0.02 0.02 0.02 
0.02 0.02 0.02 0.02 0.02 0.02 0.02 0.02 0.02 
0.02 0.02 0.02 0.02 0.02 0.02 0.02 0.02 0.02 
0.02 0.02 0.02 0.02 0.02 0.02 0.02 0.02 0.02 
0.02 0.02 0.02 0.02 0.02 0.02 0.02 0.02 0.02 
0.02 0.02 0.02 0.02 0.02 0.02 0.02 0.02 0.02 
0.02 0.02 0.02 0.02 0.02 0.02 0.02 0.02 0.02 
0.02 0.02 0.02 0.02 0.02 0.02 0.02 0.02 0.02 
0.02 0.02 0.02 0.02 0.02 0.02 0.02 0.02 0.02 
0.02 0.02 0.02 0.02 0.02 0.02 0.02 0.02 0.02 
0.02 0.02 0.02 0.02 0.02 0.02 0.02 0.02 0.02 
0.02 0.02 0.02 0.02 0.02 0.02 0.02 0.02 0.02 
0.02 0.02 0.02 0.02 0.02 0.02 0.02 0.02 0.02 
0.02 0.02 0.02 0.02 0.02 0.02 0.02 0.02 0.02 
0.02 0.02 0.02 0.02 0.02 0.02 0.02 0.02 0.02 
0.02 0.02 0.02 0.02 0.02 0.02 0.02 0.02 0.02 
0.02 0.02 0.02 0.02 0.02 0.02 0.02 0.02 0.02 
0.02 0.02 0.02 0.02 0.02 0.02 0.02 0.02 0.02 
0.02 0.02 0.02 0.02 0.02 0.02 0.02 0.02 0.02 
0.02 0.02 0.02 0.02 0.02 0.02 0.02 0.02 0.02 
0.02 0.02 0.02 0.02 0.02 0.02 0.02 0.02 0.02 
0.02 0.02 0.02 0.02 0.02 0.02 0.02 0.02 0.02 
0.02 0.02 0.02 0.02 0.02 0.02 0.02 0.02 0.02 
0.02 0.02 0.02 0.02 0.02 0.02 0.02 0.02 0.02 
0.02 0.02 0.02 0.02 0.02 0.02 0.02 0.02 0.02 
0.02 0.02 0.02 0.02 0.02 0.02 0.02 0.02 0.02 
0.02 0.02 0.02 0.02 0.02 0.02 0.02 0.02 0.02 
0.02 0.02 0.02 0.02 0.02 0.02 0.02 0.02 0.02 
0.02 0.02 0.02 0.02 0.02 0.02 0.02 0.02 0.02 
0.02 0.02 0.02 0.02 0.02 0.02 0.02 0.02 0.02 
0.02 0.02 0.02 0.02 0.02 0.02 0.02 0.02 0.02 
0.02 0.02 0.02 0.02 0.02 0.02 0.02 0.02 0.02 
0.02 0.02 0.02 0.02 0.02 0.02 0.02 0.02 0.02 
0.02 0.02 0.02 0.02 0.02 0.02 0.02 0.02 0.02 
0.02 0.02 0.02 0.02 0.02 0.02 0.02 0.02 0.02 
0.02 0.02 0.02 0.02 0.02 0.02 0.02 0.02 0.02 
0.02 0.02 0.02 0.02 0.02 0.02 0.02 0.02 0.02 
0.02 0.02 0.02 0.02 0.02 0.02 0.02 0.02 0.02 
0.02 0.02 0.02 0.02 0.02 0.02 0.02 0.02 0.02 
0.02 0.02 0.02 0.02 0.02 0.02 0.02 0.02 0.02 
0.02 0.02 0.02 0.02 0.02 0.02 0.02 0.02 0.02 
0.02 0.02 0.02 0.02 0.02 0.02 0.02 0.02 0.02 
0.02 0.02 0.02 0.02 0.02 0.02 0.02 0.02 0.02 
0.02 0.02 0.02 0.02 0.02 0.02 0.02 0.02 0.02 
0.02 0.02 0.02 0.02 0.02 0.02 0.02 0.02 0.02 
0.02 0.02 0.02 0.02 0.02 0.02 0.02 0.02 0.02 
0.02 0.02 0.02 0.02 0.02 0.02 0.02 0.02 0.02 
0.02 0.02 0.02 0.02 0.02 0.02 0.02 0.02 0.02 
0.02 0.02 0.02 0.02 0.02 0.02 0.02 0.02 0.02 
0.02 0.02 0.02 0.02 0.02 0.02 0.02 0.02 0.02 
0.02 0.02 0.02 0.02 0.02 0.02 0.02 0.02 0.02 
0.02 0.02 0.02 0.02 0.02 0.02 0.02 0.02 0.02 
0.02 0.02 0.02 0.02 0.02 0.02 0.02 0.02 0.02 
0.02 0.02 0.02 0.02 0.02 0.02 0.02 0.02 0.02 
0.02 0.02 0.02 0.02 0.02 0.02 0.02 0.02 0.02 
0.02 0.02 0.02 0.02 0.02 0.02 0.02 0.02 0.02 
0.02 0.02 0.02 0.02 0.02 0.02 0.02 0.02 0.02 
0.02 0.02 0.02 0.02 0.02 0.02 0.02 0.02 0.02 
0.02 0.02 0.02 0.02 0.02 0.02 0.02 0.02 0.02 
0.02 0.02 0.02 0.02 0.02 0.02 0.02 0.02 0.02 
0.02 0.02 0.02 0.02 0.02 0.02 0.02 0.02 0.02 
0.02 0.02 0.02 0.02 0.02 0.02 0.02 0.02 0.02 
0.02 0.02 0.02 0.02 0.02 0.02 0.02 0.02 0.02 
0.02 0.02 0.02 0.02 0.02 0.02 0.02 0.02 0.02 
0.02 0.02 0.02 0.02 0.02 0.02 0.02 0.02 0.02 
0.02 0.02 0.02 0.02 0.02 0.02 0.02 0.02 0.02 
0.02 0.02 0.02 0.02 0.02 0.02 0.02 0.02 0.02 
0.02 0.02 0.02 0.02 0.02 0.02 0.02 0.02 0.02 
0.02 0.02 0.02 0.02 0.02 0.02 0.02 0.02 0.02 
0.02 0.02 0.02 0.02 0.02 0.02 0.02 0.02 0.02 
0.02 0.02 0.02 0.02 0.02 0.02 0.02 0.02 0.02 
0.02 0.02 0.02 0.02 0.02 0.02 0.02 0.02 0.02 
0.02 0.02 0.02 0.02 0.02 0.02 0.02 0.02 0.02 
0.02 0.02 0.02 0.02 0.02 0.02 0.02 0.02 0.02 
0.02 0.02 0.02 0.02 0.02 0.02 0.02 0.02 0.02 
0.02 0.02 0.02 0.02 0.02 0.02 0.02 0.02 0.02 
0.02 0.02 0.02 0.02 0.02 0.02 0.02 0.02 0.02 
0.02 0.02 0.02 0.02 0.02 0.02 0.02 0.02 0.02 
0.02 0.02 0.02 0.02 0.02 0.02 0.02 0.02 0.02 
0.02 0.02 0.02 0.02 0.02 0.02 0.02 0.02 0.02 
0.02 0.02 0.02 0.02 0.02 0.02 0.02 0.02 0.02 
0.02 0.02 0.02 0.02 0.02 0.02 0.02 0.02 0.02 
0.02 0.02 0.02 0.02 0.02 0.02 0.02 0.02 0.02 
0.02 0.02 0.02 0.02 0.02 0.02 0.02 0.02 0.02 
0.02 0.02 0.02 0.02 0.02 0.02 0.02 0.02 0.02 
0.02 0.02 0.02 0.02 0.02 0.02 0.02 0.02 0.02 
0.02 0.02 0.02 0.02 0.02 0.02 0.02 0.02 0.02 
0.02 0.02 0.02 0.02 0.02 0.02 0.02 0.02 0.02 
0.02 0.02 0.02 0.02 0.02 0.02 0.02 0.02 0.02 
0.02 0.02 0.02 0.02 0.02 0.02 0.02 0.02 0.02 
0.02 0.02 0.02 0.02 0.02 0.02 0.02 0.02 0.02 
0.02 0.02 0.02 0.02 0.02 0.02 0.02 0.02 0.02 
0.02 0.02 0.02 0.02 0.02 0.02 0.02 0.02 0.02 
0.02 0.02 0.02 0.02 0.02 0.02 0.02 0.02 0.02 
0.02 0.02 0.02 0.02 0.02 0.02 0.02 0.02 0.02 
0.02 0.02 0.02 0.02 0.02 0.02 0.02 0.02 0.02 
0.02 0.02 0.02 0.02 0.02 0.02 0.02 0.02 0.02 
0.02 0.02 0.02 0.02 0.02 0.02 0.02 0.02 0.02 
0.02 0.02 0.02 0.02 0.02 0.02 0.02 0.02 0.02 
0.02 0.02 0.02 0.02 0.02 0.02 0.02 0.02 0.02 
0.02 0.02 0.02 0.02 0.02 0.02 0.02 0.02 0.02 
0.02 0.02 0.02 0.02 0.02 0.02 0.02 0.02 0.02 
0.02 0.02 0.02 0.02 0.02 0.02 0.02 0.02 0.02 
0.02 0.02 0.02 0.02 0.02 0.02 0.02 0.02 0.02 
0.02 0.02 0.02 0.02 0.02 0.02 0.02 0.02 0.02 
0.02 0.02 0.02 0.02 0.02 0.02 0.02 0.02 0.02 
0.02 0.02 0.02 0.02 0.02 0.02 0.02 0.02 0.02 
0.02 0.02 0.02 0.02 0.02 0.02 0.02 0.02 0.02 
0.02 0.02 0.02 0.02 0.02 0.02 0.02 0.02 0.02 
0.02 0.02 0.02 0.02 0.02 0.02 0.02 0.02 0.02 
0.02 0.02 0.02 0.02 0.02 0.02 0.02 0.02 0.02 
0.02 0.02 0.02 0.02 0.02 0.02 0.02 0.02 0.02 
0.02 0.02 0.02 0.02 0.02 0.02 0.02 0.02 0.02 
0.02 0.02 0.02 0.02 0.02 0.02 0.02 0.02 0.02 
0.02 0.02 0.02 0.02 0.02 0.02 0.02 0.02 0.02 
0.02 0.02 0.02 0.02 0.02 0.02 0.02 0.02 0.02 
0.02 0.02 0.02 0.02 0.02 0.02 0.02 0.02 0.02 
0.02 0.02 0.02 0.02 0.02 0.02 0.02 0.02 0.02 
0.02 0.02 0.02 0.02 0.02 0.02 0.02 0.02 0.02 
0.02 0.02 0.02 0.02 0.02 0.02 0.02 0.02 0.02 
0.02 0.02 0.02 0.02 0.02 0.02 0.02 0.02 0.02 
0.02 0.02 0.02 0.02 0.02 0.02 0.02 0.02 0.02 
0.02 0.02 0.02 0.02 0.02 0.02 0.02 0.02 0.02 
0.02 0.02 0.02 0.02 0.02 0.02 0.02 0.02 0.02 
0.02 0.02 0.02 0.02 0.02 0.02 0.02 0.02 0.02 
0.02 0.02 0.02 0.02 0.02 0.02 0.02 0.02 0.02 
0.02 0.02 0.02 0.02 0.02 0.02 0.02 0.02 0.02 
0.02 0.02 0.02 0.02 0.02 0.02 0.02 0.02 0.02 
0.02 0.02 0.02 0.02 0.02 0.02 0.02 0.02 0.02 
0.02 0.02 0.02 0.02 0.02 0.02 0.02 0.02 0.02 
0.02 0.02 0.02 0.02 0.02 0.02 0.02 0.02 0.02 
0.02 0.02 0.02 0.02 0.02 0.02 0.02 0.02 0.02 
0.02 0.02 0.02 0.02 0.02 0.02 0.02 0.02 0.02 
0.02 0.02 0.02 0.02 0.02 0.02 0.02 0.02 0.02 
0.02 0.02 0.02 0.02 0.02 0.02 0.02 0.02 0.02 
0.02 0.02 0.02 0.02 0.02 0.02 0.02 0.02 0.02 
0.02 0.02 0.02 0.02 0.02 0.02 0.02 0.02 0.02 
0.02 0.02 0.02 0.02 0.02 0.02 0.02 0.02 0.02 
0.02 0.02 0.02 0.02 0.02 0.02 0.02 0.02 0.02 
0.02 0.02 0.02 0.02 0.02 0.02 0.02 0.02 0.02 
0.02 0.02 0.02 0.02 0.02 0.02 0.02 0.02 0.02 
0.02 0.02 0.02 0.02 0.02 0.02 0.02 0.02 0.02 
0.02 0.02 0.02 0.02 0.02 0.02 0.02 0.02 0.02 
0.02 0.02 0.02 0.02 0.02 0.02 0.02 0.02 0.02 
0.02 0.02 0.02 0.02 0.02 0.02 0.02 0.02 0.02 
0.02 0.02 0.02 0.02 0.02 0.02 0.02 0.02 0.02 
0.02 0.02 0.02 0.02 0.02 0.02 0.02 0.02 0.02 
0.02 0.02 0.02 0.02 0.02 0.02 0.02 0.02 0.02 
0.02 0.02 0.02 0.02 0.02 0.02 0.02 0.02 0.02 
0.02 0.02 0.02 0.02 0.02 0.02 0.02 0.02 0.02 
0.02 0.02 0.02 0.02 0.02 0.02 0.02 0.02 0.02 
0.02 0.02 0.02 0.02 0.02 0.02 0.02 0.02 0.02 
0.02 0.02 0.02 0.02 0.02 0.02 0.02 0.02 0.02 
0.02 0.02 0.02 0.02 0.02 0.02 0.02 0.02 0.02 
0.02 0.02 0.02 0.02 0.02 0.02 0.02 0.02 0.02 
0.02 0.02 0.02 0.02 0.02 0.02 0.02 0.02 0.02 
0.02 0.02 0.02 0.02 0.02 0.02 0.02 0.02 0.02 
0.02 0.02 0.02 0.02 0.02 0.02 0.02 0.02 0.02 
0.02 0.02 0.02 0.02 0.02 0.02 0.02 0.02 0.02 
0.02 0.02 0.02 0.02 0.02 0.02 0.02 0.02 0.02 
0.02 0.02 0.02 0.02 0.02 0.02 0.02 0.02 0.02 
0.02 0.02 0.02 0.02 0.02 0.02 0.02 0.02 0.02 
0.02 0.02 0.02 0.02 0.02 0.02 0.02 0.02 0.02 
0.02 0.02 0.02 0.02 0.02 0.02 0.02 0.02 0.02 
0.02 0.02 0.02 0.02 0.02 0.02 0.02 0.02 0.02 
0.02 0.02 0.02 0.02 0.02 0.02 0.02 0.02 0.02 
0.02 0.02 0.02 0.02 0.02 0.02 0.02 0.02 0.02 
0.02 0.02 0.02 0.02 0.02 0.02 0.02 0.02 0.02 
0.02 0.02 0.02 0.02 0.02 0.02 0.02 0.02 0.02 
0.02 0.02 0.02 0.02 0.02 0.02 0.02 0.02 0.02 
0.02 0.02 0.02 0.02 0.02 0.02 0.02 0.02 0.02 
0.02 0.02 0.02 0.02 0.02 0.02 0.02 0.02 0.02 
0.02 0.02 0.02 0.02 0.02 0.02 0.02 0.02 0.02 
0.02 0.02 0.02 0.02 0.02 0.02 0.02 0.02 0.02 
0.02 0.02 0.02 0.02 0.02 0.02 0.02 0.02 0.02 
0.02 0.02 0.02 0.02 0.02 0.02 0.02 0.02 0.02 
0.02 0.02 0.02 0.02 0.02 0.02 0.02 0.02 0.02 
0.02 0.02 0.02 0.02 0.02 0.02 0.02 0.02 0.02 
0.02 0.02 0.02 0.02 0.02 0.02 0.02 0.02 0.02 
0.02 0.02 0.02 0.02 0.02 0.02 0.02 0.02 0.02 
0.02 0.02 0.02 0.02 0.02 0.02 0.02 0.02 0.02 
0.02 0.02 0.02 0.02 0.02 0.02 0.02 0.02 0.02 
0.02 0.02 0.02 0.02 0.02 0.02 0.02 0.02 0.02 
0.02 0.02 0.02 0.02 0.02 0.02 0.02 0.02 0.02 
0.02 0.02 0.02 0.02 0.02 0.02 0.02 0.02 0.02 
0.02 0.02 0.02 0.02 0.02 0.02 0.02 0.02 0.02 
0.02 0.02 0.02 0.02 0.02 0.02 0.02 0.02 0.02 
0.02 0.02 0.02 0.02 0.02 0.02 0.02 0.02 0.02 
0.02 0.02 0.02 0.02 0.02 0.02 0.02 0.02 0.02 
0.02 0.02 0.02 0.02 0.02 0.02 0.02 0.02 0.02 
0.02 0.02 0.02 0.02 0.02 0.02 0.02 0.02 0.02 
0.02 0.02 0.02 0.02 0.02 0.02 0.02 0.02 0.02 
0.02 0.02 0.02 0.02 0.02 0.02 0.02 0.02 0.02 
0.02 0.02 0.02 0.02 0.02 0.02 0.02 0.02 0.02 
0.02 0.02 0.02 0.02 0.02 0.02 0.02 0.02 0.02 
0.02 0.02 0.02 0.02 0.02 0.02 0.02 0.02 0.02 
0.02 0.02 0.02 0.02 0.02 0.02 0.02 0.02 0.02 
0.02 0.02 0.02 0.02 0.02 0.02 0.02 0.02 0.02 
0.02 0.02 0.02 0.02 0.02 0.02 0.02 0.02 0.02 
0.02 0.02 0.02 0.02 0.02 0.02 0.02 0.02 0.02 
0.02 0.02 0.02 0.02 0.02 0.02 0.02 0.02 0.02 
0.02 0.02 0.02 0.02 0.02 0.02 0.02 0.02 0.02 
0.02 0.02 0.02 0.02 0.02 0.02 0.02 0.02 0.02 
0.02 0.02 0.02 0.02 0.02 0.02 0.02 0.02 0.02 
0.02 0.02 0.02 0.02 0.02 0.02 0.02 0.02 0.02 
0.02 0.02 0.02 0.02 0.02 0.02 0.02 0.02 0.02 
0.02 0.02 0.02 0.02 0.02 0.02 0.02 0.02 0.02 
0.02 0.02 0.02 0.02 0.02 0.02 0.02 0.02 0.02 
0.02 0.02 0.02 0.02 0.02 0.02 0.02 0.02 0.02 
0.02 0.02 0.02 0.02 0.02 0.02 0.02 0.02 0.02 
0.02 0.02 0.02 0.02 0.02 0.02 0.02 0.02 0.02 
0.02 0.02 0.02 0.02 0.02 0.02 0.02 0.02 0.02 
0.02 0.02 0.02 0.02 0.02 0.02 0.02 0.02 0.02 
0.02 0.02 0.02 0.02 0.02 0.02 0.02 0.02 0.02 
0.02 0.02 0.02 0.02 0.02 0.02 0.02 0.02 0.02 
0.02 0.02 0.02 0.02 0.02 0.02 0.02 0.02 0.02 
0.02 0.02 0.02 0.02 0.02 0.02 0.02 0.02 0.02 
0.02 0.02 0.02 0.02 0.02 0.02 0.02 0.02 0.02 
0.02 0.02 0.02 0.02 0.02 0.02 0.02 0.02 0.02 
0.02 0.02 0.02 0.02 0.02 0.02 0.02 0.02 0.02 
0.02 0.02 0.02 0.02 0.02 0.02 0.02 0.02 0.02 
0.02 0.02 0.02 0.02 0.02 0.02 0.02 0.02 0.02 
0.02 0.02 0.02 0.02 0.02 0.02 0.02 0.02 0.02 
0.02 0.02 0.02 0.02 0.02 0.02 0.02 0.02 0.02 
0.02 0.02 0.02 0.02 0.02 0.02 0.02 0.02 0.02 
0.02 0.02 0.02 0.02 0.02 0.02 0.02 0.02 0.02 
0.02 0.02 0.02 0.02 0.02 0.02 0.02 0.02 0.02 
0.02 0.02 0.02 0.02 0.02 0.02 0.02 0.02 0.02 
0.02 0.02 0.02 0.02 0.02 0.02 0.02 0.02 0.02 
0.02 0.02 0.02 0.02 0.02 0.02 0.02 0.02 0.02 
0.02 0.02 0.02 0.02 0.02 0.02 0.02 0.02 0.02 
0.02 0.02 0.02 0.02 0.02 0.02 0.02 0.02 0.02 
0.02 0.02 0.02 0.02 0.02 0.02 0.02 0.02 0.02 
0.02 0.02 0.02 0.02 0.02 0.02 0.02 0.02 0.02 
0.02 0.02 0.02 0.02 0.02 0.02 0.02 0.02 0.02 
0.02 0.02 0.02 0.02 0.02 0.02 0.02 0.02 0.02 
0.02 0.02 0.02 0.02 0.02 0.02 0.02 0.02 0.02 
0.02 0.02 0.02 0.02 0.02 0.02 0.02 0.02 0.02 
0.02 0.02 0.02 0.02 0.02 0.02 0.02 0.02 0.02 
0.02 0.02 0.02 0.02 0.02 0.02 0.02 0.02 0.02 
0.02 0.02 0.02 0.02 0.02 0.02 0.02 0.02 0.02 
0.02 0.02 0.02 0.02 0.02 0.02 0.02 0.02 0.02 
0.02 0.02 0.02 0.02 0.02 0.02 0.02 0.02 0.02 
0.02 0.02 0.02 0.02 0.02 0.02 0.02 0.02 0.02 
0.02 0.02 0.02 0.02 0.02 0.02 0.02 0.02 0.02 
0.02 0.02 0.02 0.02 0.02 0.02 0.02 0.02 0.02 
0.02 0.02 0.02 0.02 0.02 0.02 0.02 0.02 0.02 
0.02 0.02 0.02 0.02 0.02 0.02 0.02 0.02 0.02 
0.02 0.02 0.02 0.02 0.02 0.02 0.02 0.02 0.02 
0.02 0.02 0.02 0.02 0.02 0.02 0.02 0.02 0.02 
0.02 0.02 0.02 0.02 0.02 0.02 0.02 0.02 0.02 
0.02 0.02 0.02 0.02 0.02 0.02 0.02 0.02 0.02 
0.02 0.02 0.02 0.02 0.02 0.02 0.02 0.02 0.02 
0.02 0.02 0.02 0.02 0.02 0.02 0.02 0.02 0.02 
0.02 0.02 0.02 0.02 0.02 0.02 0.02 0.02 0.02 
0.02 0.02 0.02 0.02 0.02 0.02 0.02 0.02 0.02 
0.02 0.02 0.02 0.02 0.02 0.02 0.02 0.02 0.02 
0.02 0.02 0.02 0.02 0.02 0.02 0.02 0.02 0.02 
0.02 0.02 0.02 0.02 0.02 0.02 0.02 0.02 0.02 
0.02 0.02 0.02 0.02 0.02 0.02 0.02 0.02 0.02 
0.02 0.02 0.02 0.02 0.02 0.02 0.02 0.02 0.02 
0.02 0.02 0.02 0.02 0.02 0.02 0.02 0.02 0.02 
0.02 0.02 0.02 0.02 0.02 0.02 0.02 0.02 0.02 
0.02 0.02 0.02 0.02 0.02 0.02 0.02 0.02 0.02 
0.02 0.02 0.02 0.02 0.02 0.02 0.02 0.02 0.02 
0.02 0.02 0.02 0.02 0.02 0.02 0.02 0.02 0.02 
0.02 0.02 0.02 0.02 0.02 0.02 0.02 0.02 0.02 
0.02 0.02 0.02 0.02 0.02 0.02 0.02 0.02 0.02 
0.02 0.02 0.02 0.02 0.02 0.02 0.02 0.02 0.02 
0.02 0.02 0.02 0.02 0.02 0.02 0.02 0.02 0.02 
0.02 0.02 0.02 0.02 0.02 0.02 0.02 0.02 0.02 
0.02 0.02 0.02 0.02 0.02 0.02 0.02 0.02 0.02 
0.02 0.02 0.02 0.02 0.02 0.02 0.02 0.02 0.02 
0.02 0.02 0.02 0.02 0.02 0.02 0.02 0.02 0.02 
0.02 0.02 0.02 0.02 0.02 0.02 0.02 0.02 0.02 
0.02 0.02 0.02 0.02 0.02 0.02 0.02 0.02 0.02 
0.02 0.02 0.02 0.02 0.02 0.02 0.02 0.02 0.02 
0.02 0.02 0.02 0.02 0.02 0.02 0.02 0.02 0.02 
0.02 0.02 0.02 0.02 0.02 0.02 0.02 0.02 0.02 
0.02 0.02 0.02 0.02 0.02 0.02 0.02 0.02 0.02 
0.02 0.02 0.02 0.02 0.02 0.02 0.02 0.02 0.02 
0.02 0.02 0.02 0.02 0.02 0.02 0.02 0.02 0.02 
0.02 0.02 0.02 0.02 0.02 0.02 0.02 0.02 0.02 
0.02 0.02 0.02 0.02 0.02 0.02 0.02 0.02 0.02 
0.02 0.02 0.02 0.02 0.02 0.02 0.02 0.02 0.02 
0.02 0.02 0.02 0.02 0.02 0.02 0.02 0.02 0.02 
0.02 0.02 0.02 0.02 0.02 0.02 0.02 0.02 0.02 
0.02 0.02 0.02 0.02 0.02 0.02 0.02 0.02 0.02 
0.02 0.02 0.02 0.02 0.02 0.02 0.02 0.02 0.02 
0.02 0.02 0.02 0.02 0.02 0.02 0.02 0.02 0.02 
0.02 0.02 0.02 0.02 0.02 0.02 0.02 0.02 0.02 
0.02 0.02 0.02 0.02 0.02 0.02 0.02 0.02 0.02 
0.02 0.02 0.02 0.02 0.02 0.02 0.02 0.02 0.02 
0.02 0.02 0.02 0.02 0.02 0.02 0.02 0.02 0.02 
0.02 0.02 0.02 0.02 0.02 0.02 0.02 0.02 0.02 
0.02 0.02 0.02 0.02 0.02 0.02 0.02 0.02 0.02 
0.02 0.02 0.02 0.02 0.02 0.02 0.02 0.02 0.02 
0.02 0.02 0.02 0.02 0.02 0.02 0.02 0.02 0.02 
0.02 0.02 0.02 0.02 0.02 0.02 0.02 0.02 0.02 
0.02 0.02 0.02 0.02 0.02 0.02 0.02 0.02 0.02 
0.02 0.02 0.02 0.02 0.02 0.02 0.02 0.02 0.02 
0.02 0.02 0.02 0.02 0.02 0.02 0.02 0.02 0.02 
0.02 0.02 0.02 0.02 0.02 0.02 0.02 0.02 0.02 
0.02 0.02 0.02 0.02 0.02 0.02 0.02 0.02 0.02 
0.02 0.02 0.02 0.02 0.02 0.02 0.02 0.02 0.02 
0.02 0.02 0.02 0.02 0.02 0.02 0.02 0.02 0.02 
0.02 0.02 0.02 0.02 0.02 0.02 0.02 0.02 0.02 
0.02 0.02 0.02 0.02 0.02 0.02 0.02 0.02 0.02 
0.02 0.02 0.02 0.02 0.02 0.02 0.02 0.02 0.02 
0.02 0.02 0.02 0.02 0.02 0.02 0.02 0.02 0.02 
0.02 0.02 0.02 0.02 0.02 0.02 0.02 0.02 0.02 
0.02 0.02 0.02 0.02 0.02 0.02 0.02 0.02 0.02 
0.02 0.02 0.02 0.02 0.02 0.02 0.02 0.02 0.02 
0.02 0.02 0.02 0.02 0.02 0.02 0.02 0.02 0.02 
0.02 0.02 0.02 0.02 0.02 0.02 0.02 0.02 0.02 
0.02 0.02 0.02 0.02 0.02 0.02 0.02 0.02 0.02 
0.02 0.02 0.02 0.02 0.02 0.02 0.02 0.02 0.02 
0.02 0.02 0.02 0.02 0.02 0.02 0.02 0.02 0.02 
0.02 0.02 0.02 0.02 0.02 0.02 0.02 0.02 0.02 
0.02 0.02 0.02 0.02 0.02 0.02 0.02 0.02 0.02 
0.02 0.02 0.02 0.02 0.02 0.02 0.02 0.02 0.02 
0.02 0.02 0.02 0.02 0.02 0.02 0.02 0.02 0.02 
0.02 0.02 0.02 0.02 0.02 0.02 0.02 0.02 0.02 
0.02 0.02 0.02 0.02 0.02 0.02 0.02 0.02 0.02 
0.02 0.02 0.02 0.02 0.02 0.02 0.02 0.02 0.02 
0.02 0.02 0.02 0.02 0.02 0.02 0.02 0.02 0.02 
0.02 0.02 0.02 0.02 0.02 0.02 0.02 0.02 0.02 
0.02 0.02 0.02 0.02 0.02 0.02 0.02 0.02 0.02 
0.02 0.02 0.02 0.02 0.02 0.02 0.02 0.02 0.02 
0.02 0.02 0.02 0.02 0.02 0.02 0.02 0.02 0.02 
0.02 0.02 0.02 0.02 0.02 0.02 0.02 0.02 0.02 
0.02 0.02 0.02 0.02 0.02 0.02 0.02 0.02 0.02 
0.02 0.02 0.02 0.02 0.02 0.02 0.02 0.02 0.02 
0.02 0.02 0.02 0.02 0.02 0.02 0.02 0.02 0.02 
0.02 0.02 0.02 0.02 0.02 0.02 0.02 0.02 0.02 
0.02 0.02 0.02 0.02 0.02 0.02 0.02 0.02 0.02 
0.02 0.02 0.02 0.02 0.02 0.02 0.02 0.02 0.02 
0.02 0.02 0.02 0.02 0.02 0.02 0.02 0.02 0.02 
0.02 0.02 0.02 0.02 0.02 0.02 0.02 0.02 0.02 
0.02 0.02 0.02 0.02 0.02 0.02 0.02 0.02 0.02 
0.02 0.02 0.02 0.02 0.02 0.02 0.02 0.02 0.02 
0.02 0.02 0.02 0.02 0.02 0.02 0.02 0.02 0.02 
0.02 0.02 0.02 0.02 0.02 0.02 0.02 0.02 0.02 
0.02 0.02 0.02 0.02 0.02 0.02 0.02 0.02 0.02 
0.02 0.02 0.02 0.02 0.02 0.02 0.02 0.02 0.02 
0.02 0.02 0.02 0.02 0.02 0.02 0.02 0.02 0.02 
0.02 0.02 0.02 0.02 0.02 0.02 0.02 0.02 0.02 
0.02 0.02 0.02 0.02 0.02 0.02 0.02 0.02 0.02 
0.02 0.02 0.02 0.02 0.02 0.02 0.02 0.02 0.02 
0.02 0.02 0.02 0.02 0.02 0.02 0.02 0.02 0.02 
0.02 0.02 0.02 0.02 0.02 0.02 0.02 0.02 0.02 
0.02 0.02 0.02 0.02 0.02 0.02 0.02 0.02 0.02 
0.02 0.02 0.02 0.02 0.02 0.02 0.02 0.02 0.02 
0.02 0.02 0.02 0.02 0.02 0.02 0.02 0.02 0.02 
0.02 0.02 0.02 0.02 0.02 0.02 0.02 0.02 0.02 
0.02 0.02 0.02 0.02 0.02 0.02 0.02 0.02 0.02 
0.02 0.02 0.02 0.02 0.02 0.02 0.02 0.02 0.02 
0.02 0.02 0.02 0.02 0.02 0.02 0.02 0.02 0.02 
0.02 0.02 0.02 0.02 0.02 0.02 0.02 0.02 0.02 
0.02 0.02 0.02 0.02 0.02 0.02 0.02 0.02 0.02 
0.02 0.02 0.02 0.02 0.02 0.02 0.02 0.02 0.02 
0.02 0.02 0.02 0.02 0.02 0.02 0.02 0.02 0.02 
0.02 0.02 0.02 0.02 0.02 0.02 0.02 0.02 0.02 
0.02 0.02 0.02 0.02 0.02 0.02 0.02 0.02 0.02 
0.02 0.02 0.02 0.02 0.02 0.02 0.02 0.02 0.02 
0.02 0.02 0.02 0.02 0.02 0.02 0.02 0.02 0.02 
0.02 0.02 0.02 0.02 0.02 0.02 0.02 0.02 0.02 
0.02 0.02 0.02 0.02 0.02 0.02 0.02 0.02 0.02 
0.02 0.02 0.02 0.02 0.02 0.02 0.02 0.02 0.02 
0.02 0.02 0.02 0.02 0.02 0.02 0.02 0.02 0.02 
0.02 0.02 0.02 0.02 0.02 0.02 0.02 0.02 0.02 
0.02 0.02 0.02 0.02 0.02 0.02 0.02 0.02 0.02 
0.02 0.02 0.02 0.02 0.02 0.02 0.02 0.02 0.02 
0.02 0.02 0.02 0.02 0.02 0.02 0.02 0.02 0.02 
0.02 0.02 0.02 0.02 0.02 0.02 0.02 0.02 0.02 
0.02 0.02 0.02 0.02 0.02 0.02 0.02 0.02 0.02 
0.02 0.02 0.02 0.02 0.02 0.02 0.02 0.02 0.02 
0.02 0.02 0.02 0.02 0.02 0.02 0.02 0.02 0.02 
0.02 0.02 0.02 0.02 0.02 0.02 0.02 0.02 0.02 
0.02 0.02 0.02 0.02 0.02 0.02 0.02 0.02 0.02 
0.02 0.02 0.02 0.02 0.02 0.02 0.02 0.02 0.02 
0.02 0.02 0.02 0.02 0.02 0.02 0.02 0.02 0.02 
0.02 0.02 0.02 0.02 0.02 0.02 0.02 0.02 0.02 
0.02 0.02 0.02 0.02 0.02 0.02 0.02 0.02 0.02 
0.02 0.02 0.02 0.02 0.02 0.02 0.02 0.02 0.02 
0.02 0.02 0.02 0.02 0.02 0.02 0.02 0.02 0.02 
0.02 0.02 0.02 0.02 0.02 0.02 0.02 0.02 0.02 
0.02 0.02 0.02 0.02 0.02 0.02 0.02 0.02 0.02 
0.02 0.02 0.02 0.02 0.02 0.02 0.02 0.02 0.02 
0.02 0.02 0.02 0.02 0.02 0.02 0.02 0.02 0.02 
0.02 0.02 0.02 0.02 0.02 0.02 0.02 0.02 0.02 
0.02 0.02 0.02 0.02 0.02 0.02 0.02 0.02 0.02 
0.02 0.02 0.02 0.02 0.02 0.02 0.02 0.02 0.02 
0.02 0.02 0.02 0.02 0.02 0.02 0.02 0.02 0.02 
0.02 0.02 0.02 0.02 0.02 0.02 0.02 0.02 0.02 
0.02 0.02 0.02 0.02 0.02 0.02 0.02 0.02 0.02 
0.02 0.02 0.02 0.02 0.02 0.02 0.02 0.02 0.02 
0.02 0.02 0.02 0.02 0.02 0.02 0.02 0.02 0.02 
0.02 0.02 0.02 0.02 0.02 0.02 0.02 0.02 0.02 
0.02 0.02 0.02 0.02 0.02 0.02 0.02 0.02 0.02 
0.02 0.02 0.02 0.02 0.02 0.02 0.02 0.02 0.02 
0.02 0.02 0.02 0.02 0.02 0.02 0.02 0.02 0.02 
0.02 0.02 0.02 0.02 0.02 0.02 0.02 0.02 0.02 
0.02 0.02 0.02 0.02 0.02 0.02 0.02 0.02 0.02 
0.02 0.02 0.02 0.02 0.02 0.02 0.02 0.02 0.02 
0.02 0.02 0.02 0.02 0.02 0.02 0.02 0.02 0.02 
0.02 0.02 0.02 0.02 0.02 0.02 0.02 0.02 0.02 
0.02 0.02 0.02 0.02 0.02 0.02 0.02 0.02 0.02 
0.02 0.02 0.02 0.02 0.02 0.02 0.02 0.02 0.02 
0.02 0.02 0.02 0.02 0.02 0.02 0.02 0.02 0.02 
0.02 0.02 0.02 0.02 0.02 0.02 0.02 0.02 0.02 
0.02 0.02 0.02 0.02 0.02 0.02 0.02 0.02 0.02 
0.02 0.02 0.02 0.02 0.02 0.02 0.02 0.02 0.02 
0.02 0.02 0.02 0.02 0.02 0.02 0.02 0.02 0.02 
0.02 0.02 0.02 0.02 0.02 0.02 0.02 0.02 0.02 
0.02 0.02 0.02 0.02 0.02 0.02 0.02 0.02 0.02 
0.02 0.02 0.02 0.02 0.02 0.02 0.02 0.02 0.02 
0.02 0.02 0.02 0.02 0.02 0.02 0.02 0.02 0.02 
0.02 0.02 0.02 0.02 0.02 0.02 0.02 0.02 0.02 
0.02 0.02 0.02 0.02 0.02 0.02 0.02 0.02 0.02 
0.02 0.02 0.02 0.02 0.02 0.02 0.02 0.02 0.02 
0.02 0.02 0.02 0.02 0.02 0.02 0.02 0.02 0.02 
0.02 0.02 0.02 0.02 0.02 0.02 0.02 0.02 0.02 
0.02 0.02 0.02 0.02 0.02 0.02 0.02 0.02 0.02 
0.02 0.02 0.02 0.02 0.02 0.02 0.02 0.02 0.02 
0.02 0.02 0.02 0.02 0.02 0.02 0.02 0.02 0.02 
0.02 0.02 0.02 0.02 0.02 0.02 0.02 0.02 0.02 
0.02 0.02 0.02 0.02 0.02 0.02 0.02 0.02 0.02 
0.02 0.02 0.02 0.02 0.02 0.02 0.02 0.02 0.02 
0.02 0.02 0.02 0.02 0.02 0.02 0.02 0.02 0.02 
0.02 0.02 0.02 0.02 0.02 0.02 0.02 0.02 0.02 
0.02 0.02 0.02 0.02 0.02 0.02 0.02 0.02 0.02 
0.02 0.02 0.02 0.02 0.02 0.02 0.02 0.02 0.02 
0.02 0.02 0.02 0.02 0.02 0.02 0.02 0.02 0.02 
0.02 0.02 0.02 0.02 0.02 0.02 0.02 0.02 0.02 
0.02 0.02 0.02 0.02 0.02 0.02 0.02 0.02 0.02 
0.02 0.02 0.02 0.02 0.02 0.02 0.02 0.02 0.02 
0.02 0.02 0.02 0.02 0.02 0.02 0.02 0.02 0.02 
0.02 0.02 0.02 0.02 0.02 0.02 0.02 0.02 0.02 
0.02 0.02 0.02 0.02 0.02 0.02 0.02 0.02 0.02 
0.02 0.02 0.02 0.02 0.02 0.02 0.02 0.02 0.02 
0.02 0.02 0.02 0.02 0.02 0.02 0.02 0.02 0.02 
0.02 0.02 0.02 0.02 0.02 0.02 0.02 0.02 0.02 
0.02 0.02 0.02 0.02 0.02 0.02 0.02 0.02 0.02 
0.02 0.02 0.02 0.02 0.02 0.02 0.02 0.02 0.02 
0.02 0.02 0.02 0.02 0.02 0.02 0.02 0.02 0.02 
0.02 0.02 0.02 0.02 0.02 0.02 0.02 0.02 0.02 
0.02 0.02 0.02 0.02 0.02 0.02 0.02 0.02 0.02 
0.02 0.02 0.02 0.02 0.02 0.02 0.02 0.02 0.02 
0.02 0.02 0.02 0.02 0.02 0.02 0.02 0.02 0.02 
0.02 0.02 0.02 0.02 0.02 0.02 0.02 0.02 0.02 
0.02 0.02 0.02 0.02 0.02 0.02 0.02 0.02 0.02 
0.02 0.02 0.02 0.02 0.02 0.02 0.02 0.02 0.02 
0.02 0.02 0.02 0.02 0.02 0.02 0.02 0.02 0.02 
0.02 0.02 0.02 0.02 0.02 0.02 0.02 0.02 0.02 
0.02 0.02 0.02 0.02 0.02 0.02 0.02 0.02 0.02 
0.02 0.02 0.02 0.02 0.02 0.02 0.02 0.02 0.02 
0.02 0.02 0.02 0.02 0.02 0.02 0.02 0.02 0.02 
0.02 0.02 0.02 0.02 0.02 0.02 0.02 0.02 0.02 
0.02 0.02 0.02 0.02 0.02 0.02 0.02 0.02 0.02 
0.02 0.02 0.02 0.02 0.02 0.02 0.02 0.02 0.02 
0.02 0.02 0.02 0.02 0.02 0.02 0.02 0.02 0.02 
0.02 0.02 0.02 0.02 0.02 0.02 0.02 0.02 0.02 
0.02 0.02 0.02 0.02 0.02 0.02 0.02 0.02 0.02 
0.02 0.02 0.02 0.02 0.02 0.02 0.02 0.02 0.02 
0.02 0.02 0.02 0.02 0.02 0.02 0.02 0.02 0.02 
0.02 0.02 0.02 0.02 0.02 0.02 0.02 0.02 0.02 
0.02 0.02 0.02 0.02 0.02 0.02 0.02 0.02 0.02 
0.02 0.02 0.02 0.02 0.02 0.02 0.02 0.02 0.02 
0.02 0.02 0.02 0.02 0.02 0.02 0.02 0.02 0.02 
0.02 0.02 0.02 0.02 0.02 0.02 0.02 0.02 0.02 
0.02 0.02 0.02 0.02 0.02 0.02 0.02 0.02 0.02 
0.02 0.02 0.02 0.02 0.02 0.02 0.02 0.02 0.02 
0.02 0.02 0.02 0.02 0.02 0.02 0.02 0.02 0.02 
0.02 0.02 0.02 0.02 0.02 0.02 0.02 0.02 0.02 
0.02 0.02 0.02 0.02 0.02 0.02 0.02 0.02 0.02 
0.02 0.02 0.02 0.02 0.02 0.02 0.02 0.02 0.02 
0.02 0.02 0.02 0.02 0.02 0.02 0.02 0.02 0.02 
0.02 0.02 0.02 0.02 0.02 0.02 0.02 0.02 0.02 
0.02 0.02 0.02 0.02 0.02 0.02 0.02 0.02 0.02 
0.02 0.02 0.02 0.02 0.02 0.02 0.02 0.02 0.02 
0.02 0.02 0.02 0.02 0.02 0.02 0.02 0.02 0.02 
0.02 0.02 0.02 0.02 0.02 0.02 0.02 0.02 0.02 
0.02 0.02 0.02 0.02 0.02 0.02 0.02 0.02 0.02 
0.02 0.02 0.02 0.02 0.02 0.02 0.02 0.02 0.02 
0.02 0.02 0.02 0.02 0.02 0.02 0.02 0.02 0.02 
0.02 0.02 0.02 0.02 0.02 0.02 0.02 0.02 0.02 
0.02 0.02 0.02 0.02 0.02 0.02 0.02 0.02 0.02 
0.02 0.02 0.02 0.02 0.02 0.02 0.02 0.02 0.02 
0.02 0.02 0.02 0.02 0.02 0.02 0.02 0.02 0.02 
0.02 0.02 0.02 0.02 0.02 0.02 0.02 0.02 0.02 
0.02 0.02 0.02 0.02 0.02 0.02 0.02 0.02 0.02 
0.02 0.02 0.02 0.02 0.02 0.02 0.02 0.02 0.02 
0.02 0.02 0.02 0.02 0.02 0.02 0.02 0.02 0.02 
0.02 0.02 0.02 0.02 0.02 0.02 0.02 0.02 0.02 
0.02 0.02 0.02 0.02 0.02 0.02 0.02 0.02 0.02 
0.02 0.02 0.02 0.02 0.02 0.02 0.02 0.02 0.02 
0.02 0.02 0.02 0.02 0.02 0.02 0.02 0.02 0.02 
0.02 0.02 0.02 0.02 0.02 0.02 0.02 0.02 0.02 
0.02 0.02 0.02 0.02 0.02 0.02 0.02 0.02 0.02 
0.02 0.02 0.02 0.02 0.02 0.02 0.02 0.02 0.02 
0.02 0.02 0.02 0.02 0.02 0.02 0.02 0.02 0.02 
0.02 0.02 0.02 0.02 0.02 0.02 0.02 0.02 0.02 
0.02 0.02 0.02 0.02 0.02 0.02 0.02 0.02 0.02 
0.02 0.02 0.02 0.02 0.02 0.02 0.02 0.02 0.02 
0.02 0.02 0.02 0.02 0.02 0.02 0.02 0.02 0.02 
0.02 0.02 0.02 0.02 0.02 0.02 0.02 0.02 0.02 
0.02 0.02 0.02 0.02 0.02 0.02 0.02 0.02 0.02 
0.02 0.02 0.02 0.02 0.02 0.02 0.02 0.02 0.02 
0.02 0.02 0.02 0.02 0.02 0.02 0.02 0.02 0.02 
0.02 0.02 0.02 0.02 0.02 0.02 0.02 0.02 0.02 
0.02 0.02 0.02 0.02 0.02 0.02 0.02 0.02 0.02 
0.02 0.02 0.02 0.02 0.02 0.02 0.02 0.02 0.02 
0.02 0.02 0.02 0.02 0.02 0.02 0.02 0.02 0.02 
0.02 0.02 0.02 0.02 0.02 0.02 0.02 0.02 0.02 
0.02 0.02 0.02 0.02 0.02 0.02 0.02 0.02 0.02 
0.02 0.02 0.02 0.02 0.02 0.02 0.02 0.02 0.02 
0.02 0.02 0.02 0.02 0.02 0.02 0.02 0.02 0.02 
0.02 0.02 0.02 0.02 0.02 0.02 0.02 0.02 0.02 
0.02 0.02 0.02 0.02 0.02 0.02 0.02 0.02 0.02 
0.02 0.02 0.02 0.02 0.02 0.02 0.02 0.02 0.02 
0.02 0.02 0.02 0.02 0.02 0.02 0.02 0.02 0.02 
0.02 0.02 0.02 0.02 0.02 0.02 0.02 0.02 0.02 
0.02 0.02 0.02 0.02 0.02 0.02 0.02 0.02 0.02 
0.02 0.02 0.02 0.02 0.02 0.02 0.02 0.02 0.02 
0.02 0.02 0.02 0.02 0.02 0.02 0.02 0.02 0.02 
0.02 0.02 0.02 0.02 0.02 0.02 0.02 0.02 0.02 
0.02 0.02 0.02 0.02 0.02 0.02 0.02 0.02 0.02 
0.02 0.02 0.02 0.02 0.02 0.02 0.02 0.02 0.02 
0.02 0.02 0.02 0.02 0.02 0.02 0.02 0.02 0.02 
0.02 0.02 0.02 0.02 0.02 0.02 0.02 0.02 0.02 
0.02 0.02 0.02 0.02 0.02 0.02 0.02 0.02 0.02 
0.02 0.02 0.02 0.02 0.02 0.02 0.02 0.02 0.02 
0.02 0.02 0.02 0.02 0.02 0.02 0.02 0.02 0.02 
0.02 0.02 0.02 0.02 0.02 0.02 0.02 0.02 0.02 
0.02 0.02 0.02 0.02 0.02 0.02 0.02 0.02 0.02 
0.02 0.02 0.02 0.02 0.02 0.02 0.02 0.02 0.02 
0.02 0.02 0.02 0.02 0.02 0.02 0.02 0.02 0.02 
0.02 0.02 0.02 0.02 0.02 0.02 0.02 0.02 0.02 
0.02 0.02 0.02 0.02 0.02 0.02 0.02 0.02 0.02 
0.02 0.02 0.02 0.02 0.02 0.02 0.02 0.02 0.02 
0.02 0.02 0.02 0.02 0.02 0.02 0.02 0.02 0.02 
0.02 0.02 0.02 0.02 0.02 0.02 0.02 0.02 0.02 
0.02 0.02 0.02 0.02 0.02 0.02 0.02 0.02 0.02 
0.02 0.02 0.02 0.02 0.02 0.02 0.02 0.02 0.02 
0.02 0.02 0.02 0.02 0.02 0.02 0.02 0.02 0.02 
0.02 0.02 0.02 0.02 0.02 0.02 0.02 0.02 0.02 
0.02 0.02 0.02 0.02 0.02 0.02 0.02 0.02 0.02 
0.02 0.02 0.02 0.02 0.02 0.02 0.02 0.02 0.02 
0.02 0.02 0.02 0.02 0.02 0.02 0.02 0.02 0.02 
0.02 0.02 0.02 0.02 0.02 0.02 0.02 0.02 0.02 
0.02 0.02 0.02 0.02 0.02 0.02 0.02 0.02 0.02 
0.02 0.02 0.02 0.02 0.02 0.02 0.02 0.02 0.02 
0.02 0.02 0.02 0.02 0.02 0.02 0.02 0.02 0.02 
0.02 0.02 0.02 0.02 0.02 0.02 0.02 0.02 0.02 
0.02 0.02 0.02 0.02 0.02 0.02 0.02 0.02 0.02 
0.02 0.02 0.02 0.02 0.02 0.02 0.02 0.02 0.02 
0.02 0.02 0.02 0.02 0.02 0.02 0.02 0.02 0.02 
0.02 0.02 0.02 0.02 0.02 0.02 0.02 0.02 0.02 
0.02 0.02 0.02 0.02 0.02 0.02 0.02 0.02 0.02 
0.02 0.02 0.02 0.02 0.02 0.02 0.02 0.02 0.02 
0.02 0.02 0.02 0.02 0.02 0.02 0.02 0.02 0.02 
0.02 0.02 0.02 0.02 0.02 0.02 0.02 0.02 0.02 
0.02 0.02 0.02 0.02 0.02 0.02 0.02 0.02 0.02 
0.02 0.02 0.02 0.02 0.02 0.02 0.02 0.02 0.02 
0.02 0.02 0.02 0.02 0.02 0.02 0.02 0.02 0.02 
0.02 0.02 0.02 0.02 0.02 0.02 0.02 0.02 0.02 
0.02 0.02 0.02 0.02 0.02 0.02 0.02 0.02 0.02 
0.02 0.02 0.02 0.02 0.02 0.02 0.02 0.02 0.02 
0.02 0.02 0.02 0.02 0.02 0.02 0.02 0.02 0.02 
0.02 0.02 0.02 0.02 0.02 0.02 0.02 0.02 0.02 
0.02 0.02 0.02 0.02 0.02 0.02 0.02 0.02 0.02 
0.02 0.02 0.02 0.02 0.02 0.02 0.02 0.02 0.02 
0.02 0.02 0.02 0.02 0.02 0.02 0.02 0.02 0.02 
0.02 0.02 0.02 0.02 0.02 0.02 0.02 0.02 0.02 
0.02 0.02 0.02 0.02 0.02 0.02 0.02 0.02 0.02 
0.02 0.02 0.02 0.02 0.02 0.02 0.02 0.02 0.02 
0.02 0.02 0.02 0.02 0.02 0.02 0.02 0.02 0.02 
0.02 0.02 0.02 0.02 0.02 0.02 0.02 0.02 0.02 
0.02 0.02 0.02 0.02 0.02 0.02 0.02 0.02 0.02 
0.02 0.02 0.02 0.02 0.02 0.02 0.02 0.02 0.02 
0.02 0.02 0.02 0.02 0.02 0.02 0.02 0.02 0.02 
0.02 0.02 0.02 0.02 0.02 0.02 0.02 0.02 0.02 
0.02 0.02 0.02 0.02 0.02 0.02 0.02 0.02 0.02 
0.02 0.02 0.02 0.02 0.02 0.02 0.02 0.02 0.02 
0.02 0.02 0.02 0.02 0.02 0.02 0.02 0.02 0.02 
0.02 0.02 0.02 0.02 0.02 0.02 0.02 0.02 0.02 
0.02 0.02 0.02 0.02 0.02 0.02 0.02 0.02 0.02 
0.02 0.02 0.02 0.02 0.02 0.02 0.02 0.02 0.02 
0.02 0.02 0.02 0.02 0.02 0.02 0.02 0.02 0.02 
0.02 0.02 0.02 0.02 0.02 0.02 0.02 0.02 0.02 
0.02 0.02 0.02 0.02 0.02 0.02 0.02 0.02 0.02 
0.02 0.02 0.02 0.02 0.02 0.02 0.02 0.02 0.02 
0.02 0.02 0.02 0.02 0.02 0.02 0.02 0.02 0.02 
0.02 0.02 0.02 0.02 0.02 0.02 0.02 0.02 0.02 
0.02 0.02 0.02 0.02 0.02 0.02 0.02 0.02 0.02 
0.02 0.02 0.02 0.02 0.02 0.02 0.02 0.02 0.02 
0.02 0.02 0.02 0.02 0.02 0.02 0.02 0.02 0.02 
0.02 0.02 0.02 0.02 0.02 0.02 0.02 0.02 0.02 
0.02 0.02 0.02 0.02 0.02 0.02 0.02 0.02 0.02 
0.02 0.02 0.02 0.02 0.02 0.02 0.02 0.02 0.02 
0.02 0.02 0.02 0.02 0.02 0.02 0.02 0.02 0.02 
0.02 0.02 0.02 0.02 0.02 0.02 0.02 0.02 0.02 
0.02 0.02 0.02 0.02 0.02 0.02 0.02 0.02 0.02 
0.02 0.02 0.02 0.02 0.02 0.02 0.02 0.02 0.02 
0.02 0.02 0.02 0.02 0.02 0.02 0.02 0.02 0.02 
0.02 0.02 0.02 0.02 0.02 0.02 0.02 0.02 0.02 
0.02 0.02 0.02 0.02 0.02 0.02 0.02 0.02 0.02 
0.02 0.02 0.02 0.02 0.02 0.02 0.02 0.02 0.02 
0.02 0.02 0.02 0.02 0.02 0.02 0.02 0.02 0.02 
0.02 0.02 0.02 0.02 0.02 0.02 0.02 0.02 0.02 
0.02 0.02 0.02 0.02 0.02 0.02 0.02 0.02 0.02 
0.02 0.02 0.02 0.02 0.02 0.02 0.02 0.02 0.02 
0.02 0.02 0.02 0.02 0.02 0.02 0.02 0.02 0.02 
0.02 0.02 0.02 0.02 0.02 0.02 0.02 0.02 0.02 
0.02 0.02 0.02 0.02 0.02 0.02 0.02 0.02 0.02 
0.02 0.02 0.02 0.02 0.02 0.02 0.02 0.02 0.02 
0.02 0.02 0.02 0.02 0.02 0.02 0.02 0.02 0.02 
0.02 0.02 0.02 0.02 0.02 0.02 0.02 0.02 0.02 
0.02 0.02 0.02 0.02 0.02 0.02 0.02 0.02 0.02 
0.02 0.02 0.02 0.02 0.02 0.02 0.02 0.02 0.02 
0.02 0.02 0.02 0.02 0.02 0.02 0.02 0.02 0.02 
0.02 0.02 0.02 0.02 0.02 0.02 0.02 0.02 0.02 
0.02 0.02 0.02 0.02 0.02 0.02 0.02 0.02 0.02 
0.02 0.02 0.02 0.02 0.02 0.02 0.02 0.02 0.02 
0.02 0.02 0.02 0.02 0.02 0.02 0.02 0.02 0.02 
0.02 0.02 0.02 0.02 0.02 0.02 0.02 0.02 0.02 
0.02 0.02 0.02 0.02 0.02 0.02 0.02 0.02 0.02 
0.02 0.02 0.02 0.02 0.02 0.02 0.02 0.02 0.02 
0.02 0.02 0.02 0.02 0.02 0.02 0.02 0.02 0.02 
0.02 0.02 0.02 0.02 0.02 0.02 0.02 0.02 0.02 
0.02 0.02 0.02 0.02 0.02 0.02 0.02 0.02 0.02 
0.02 0.02 0.02 0.02 0.02 0.02 0.02 0.02 0.02 
0.02 0.02 0.02 0.02 0.02 0.02 0.02 0.02 0.02 
0.02 0.02 0.02 0.02 0.02 0.02 0.02 0.02 0.02 
0.02 0.02 0.02 0.02 0.02 0.02 0.02 0.02 0.02 
0.02 0.02 0.02 0.02 0.02 0.02 0.02 0.02 0.02 
0.02 0.02 0.02 0.02 0.02 0.02 0.02 0.02 0.02 
0.02 0.02 0.02 0.02 0.02 0.02 0.02 0.02 0.02 
0.02 0.02 0.02 0.02 0.02 0.02 0.02 0.02 0.02 
0.02 0.02 0.02 0.02 0.02 0.02 0.02 0.02 0.02 
0.02 0.02 0.02 0.02 0.02 0.02 0.02 0.02 0.02 
0.02 0.02 0.02 0.02 0.02 0.02 0.02 0.02 0.02 
0.02 0.02 0.02 0.02 0.02 0.02 0.02 0.02 0.02 
0.02 0.02 0.02 0.02 0.02 0.02 0.02 0.02 0.02 
0.02 0.02 0.02 0.02 0.02 0.02 0.02 0.02 0.02 
0.02 0.02 0.02 0.02 0.02 0.02 0.02 0.02 0.02 
0.02 0.02 0.02 0.02 0.02 0.02 0.02 0.02 0.02 
0.02 0.02 0.02 0.02 0.02 0.02 0.02 0.02 0.02 
0.02 0.02 0.02 0.02 0.02 0.02 0.02 0.02 0.02 
0.02 0.02 0.02 0.02 0.02 0.02 0.02 0.02 0.02 
0.02 0.02 0.02 0.02 0.02 0.02 0.02 0.02 0.02 
0.02 0.02 0.02 0.02 0.02 0.02 0.02 0.02 0.02 
0.02 0.02 0.02 0.02 0.02 0.02 0.02 0.02 0.02 
0.02 0.02 0.02 0.02 0.02 0.02 0.02 0.02 0.02 
0.02 0.02 0.02 0.02 0.02 0.02 0.02 0.02 0.02 
0.02 0.02 0.02 0.02 0.02 0.02 0.02 0.02 0.02 
0.02 0.02 0.02 0.02 0.02 0.02 0.02 0.02 0.02 
0.02 0.02 0.02 0.02 0.02 0.02 0.02 0.02 0.02 
0.02 0.02 0.02 0.02 0.02 0.02 0.02 0.02 0.02 
0.02 0.02 0.02 0.02 0.02 0.02 0.02 0.02 0.02 
0.02 0.02 0.02 0.02 0.02 0.02 0.02 0.02 0.02 
0.02 0.02 0.02 0.02 0.02 0.02 0.02 0.02 0.02 
0.02 0.02 0.02 0.02 0.02 0.02 0.02 0.02 0.02 
0.02 0.02 0.02 0.02 0.02 0.02 0.02 0.02 0.02 
0.02 0.02 0.02 0.02 0.02 0.02 0.02 0.02 0.02 
0.02 0.02 0.02 0.02 0.02 0.02 0.02 0.02 0.02 
0.02 0.02 0.02 0.02 0.02 0.02 0.02 0.02 0.02 
0.02 0.02 0.02 0.02 0.02 0.02 0.02 0.02 0.02 
0.02 0.02 0.02 0.02 0.02 0.02 0.02 0.02 0.02 
0.02 0.02 0.02 0.02 0.02 0.02 0.02 0.02 0.02 
0.02 0.02 0.02 0.02 0.02 0.02 0.02 0.02 0.02 
0.02 0.02 0.02 0.02 0.02 0.02 0.02 0.02 0.02 
0.02 0.02 0.02 0.02 0.02 0.02 0.02 0.02 0.02 
0.02 0.02 0.02 0.02 0.02 0.02 0.02 0.02 0.02 
0.02 0.02 0.02 0.02 0.02 0.02 0.02 0.02 0.02 
0.02 0.02 0.02 0.02 0.02 0.02 0.02 0.02 0.02 
0.02 0.02 0.02 0.02 0.02 0.02 0.02 0.02 0.02 
0.02 0.02 0.02 0.02 0.02 0.02 0.02 0.02 0.02 
0.02 0.02 0.02 0.02 0.02 0.02 0.02 0.02 0.02 
0.02 0.02 0.02 0.02 0.02 0.02 0.02 0.02 0.02 
0.02 0.02 0.02 0.02 0.02 0.02 0.02 0.02 0.02 
0.02 0.02 0.02 0.02 0.02 0.02 0.02 0.02 0.02 
0.02 0.02 0.02 0.02 0.02 0.02 0.02 0.02 0.02 
0.02 0.02 0.02 0.02 0.02 0.02 0.02 0.02 0.02 
0.02 0.02 0.02 0.02 0.02 0.02 0.02 0.02 0.02 
0.02 0.02 0.02 0.02 0.02 0.02 0.02 0.02 0.02 
0.02 0.02 0.02 0.02 0.02 0.02 0.02 0.02 0.02 
0.02 0.02 0.02 0.02 0.02 0.02 0.02 0.02 0.02 
0.02 0.02 0.02 0.02 0.02 0.02 0.02 0.02 0.02 
0.02 0.02 0.02 0.02 0.02 0.02 0.02 0.02 0.02 
0.02 0.02 0.02 0.02 0.02 0.02 0.02 0.02 0.02 
0.02 0.02 0.02 0.02 0.02 0.02 0.02 0.02 0.02 
0.02 0.02 0.02 0.02 0.02 0.02 0.02 0.02 0.02 
0.02 0.02 0.02 0.02 0.02 0.02 0.02 0.02 0.02 
0.02 0.02 0.02 0.02 0.02 0.02 0.02 0.02 0.02 
0.02 0.02 0.02 0.02 0.02 0.02 0.02 0.02 0.02 
0.02 0.02 0.02 0.02 0.02 0.02 0.02 0.02 0.02 
0.02 0.02 0.02 0.02 0.02 0.02 0.02 0.02 0.02 
0.02 0.02 0.02 0.02 0.02 0.02 0.02 0.02 0.02 
0.02 0.02 0.02 0.02 0.02 0.02 0.02 0.02 0.02 
0.02 0.02 0.02 0.02 0.02 0.02 0.02 0.02 0.02 
0.02 0.02 0.02 0.02 0.02 0.02 0.02 0.02 0.02 
0.02 0.02 0.02 0.02 0.02 0.02 0.02 0.02 0.02 
0.02 0.02 0.02 0.02 0.02 0.02 0.02 0.02 0.02 
0.02 0.02 0.02 0.02 0.02 0.02 0.02 0.02 0.02 
0.02 0.02 0.02 0.02 0.02 0.02 0.02 0.02 0.02 
0.02 0.02 0.02 0.02 0.02 0.02 0.02 0.02 0.02 
0.02 0.02 0.02 0.02 0.02 0.02 0.02 0.02 0.02 
0.02 0.02 0.02 0.02 0.02 0.02 0.02 0.02 0.02 
0.02 0.02 0.02 0.02 0.02 0.02 0.02 0.02 0.02 
0.02 0.02 0.02 0.02 0.02 0.02 0.02 0.02 0.02 
0.02 0.02 0.02 0.02 0.02 0.02 0.02 0.02 0.02 
0.02 0.02 0.02 0.02 0.02 0.02 0.02 0.02 0.02 
0.02 0.02 0.02 0.02 0.02 0.02 0.02 0.02 0.02 
0.02 0.02 0.02 0.02 0.02 0.02 0.02 0.02 0.02 
0.02 0.02 0.02 0.02 0.02 0.02 0.02 0.02 0.02 
0.02 0.02 0.02 0.02 0.02 0.02 0.02 0.02 0.02 
0.02 0.02 0.02 0.02 0.02 0.02 0.02 0.02 0.02 
0.02 0.02 0.02 0.02 0.02 0.02 0.02 0.02 0.02 
0.02 0.02 0.02 0.02 0.02 0.02 0.02 0.02 0.02 
0.02 0.02 0.02 0.02 0.02 0.02 0.02 0.02 0.02 
0.02 0.02 0.02 0.02 0.02 0.02 0.02 0.02 0.02 
0.02 0.02 0.02 0.02 0.02 0.02 0.02 0.02 0.02 
0.02 0.02 0.02 0.02 0.02 0.02 0.02 0.02 0.02 
0.02 0.02 0.02 0.02 0.02 0.02 0.02 0.02 0.02 
0.02 0.02 0.02 0.02 0.02 0.02 0.02 0.02 0.02 
0.02 0.02 0.02 0.02 0.02 0.02 0.02 0.02 0.02 
0.02 0.02 0.02 0.02 0.02 0.02 0.02 0.02 0.02 
0.02 0.02 0.02 0.02 0.02 0.02 0.02 0.02 0.02 
0.02 0.02 0.02 0.02 0.02 0.02 0.02 0.02 0.02 
0.02 0.02 0.02 0.02 0.02 0.02 0.02 0.02 0.02 
0.02 0.02 0.02 0.02 0.02 0.02 0.02 0.02 0.02 
0.02 0.02 0.02 0.02 0.02 0.02 0.02 0.02 0.02 
0.02 0.02 0.02 0.02 0.02 0.02 0.02 0.02 0.02 
0.02 0.02 0.02 0.02 0.02 0.02 0.02 0.02 0.02 
0.02 0.02 0.02 0.02 0.02 0.02 0.02 0.02 0.02 
0.02 0.02 0.02 0.02 0.02 0.02 0.02 0.02 0.02 
0.02 0.02 0.02 0.02 0.02 0.02 0.02 0.02 0.02 
0.02 0.02 0.02 0.02 0.02 0.02 0.02 0.02 0.02 
0.02 0.02 0.02 0.02 0.02 0.02 0.02 0.02 0.02 
0.02 0.02 0.02 0.02 0.02 0.02 0.02 0.02 0.02 
0.02 0.02 0.02 0.02 0.02 0.02 0.02 0.02 0.02 
0.02 0.02 0.02 0.02 0.02 0.02 0.02 0.02 0.02 
0.02 0.02 0.02 0.02 0.02 0.02 0.02 0.02 0.02 
0.02 0.02 0.02 0.02 0.02 0.02 0.02 0.02 0.02 
0.02 0.02 0.02 0.02 0.02 0.02 0.02 0.02 0.02 
0.02 0.02 0.02 0.02 0.02 0.02 0.02 0.02 0.02 
0.02 0.02 0.02 0.02 0.02 0.02 0.02 0.02 0.02 
0.02 0.02 0.02 0.02 0.02 0.02 0.02 0.02 0.02 
0.02 0.02 0.02 0.02 0.02 0.02 0.02 0.02 0.02 
0.02 0.02 0.02 0.02 0.02 0.02 0.02 0.02 0.02 
0.02 0.02 0.02 0.02 0.02 0.02 0.02 0.02 0.02 
0.02 0.02 0.02 0.02 0.02 0.02 0.02 0.02 0.02 
0.02 0.02 0.02 0.02 0.02 0.02 0.02 0.02 0.02 
0.02 0.02 0.02 0.02 0.02 0.02 0.02 0.02 0.02 
0.02 0.02 0.02 0.02 0.02 0.02 0.02 0.02 0.02 
0.02 0.02 0.02 0.02 0.02 0.02 0.02 0.02 0.02 
0.02 0.02 0.02 0.02 0.02 0.02 0.02 0.02 0.02 
0.02 0.02 0.02 0.02 0.02 0.02 0.02 0.02 0.02 
0.02 0.02 0.02 0.02 0.02 0.02 0.02 0.02 0.02 
0.02 0.02 0.02 0.02 0.02 0.02 0.02 0.02 0.02 
0.02 0.02 0.02 0.02 0.02 0.02 0.02 0.02 0.02 
0.02 0.02 0.02 0.02 0.02 0.02 0.02 0.02 0.02 
0.02 0.02 0.02 0.02 0.02 0.02 0.02 0.02 0.02 
0.02 0.02 0.02 0.02 0.02 0.02 0.02 0.02 0.02 
0.02 0.02 0.02 0.02 0.02 0.02 0.02 0.02 0.02 
0.02 0.02 0.02 0.02 0.02 0.02 0.02 0.02 0.02 
0.02 0.02 0.02 0.02 0.02 0.02 0.02 0.02 0.02 
0.02 0.02 0.02 0.02 0.02 0.02 0.02 0.02 0.02 
0.02 0.02 0.02 0.02 0.02 0.02 0.02 0.02 0.02 
0.02 0.02 0.02 0.02 0.02 0.02 0.02 0.02 0.02 
0.02 0.02 0.02 0.02 0.02 0.02 0.02 0.02 0.02 
0.02 0.02 0.02 0.02 0.02 0.02 0.02 0.02 0.02 
0.02 0.02 0.02 0.02 0.02 0.02 0.02 0.02 0.02 
0.02 0.02 0.02 0.02 0.02 0.02 0.02 0.02 0.02 
0.02 0.02 0.02 0.02 0.02 0.02 0.02 0.02 0.02 
0.02 0.02 0.02 0.02 0.02 0.02 0.02 0.02 0.02 
0.02 0.02 0.02 0.02 0.02 0.02 0.02 0.02 0.02 
0.02 0.02 0.02 0.02 0.02 0.02 0.02 0.02 0.02 
0.02 0.02 0.02 0.02 0.02 0.02 0.02 0.02 0.02 
0.02 0.02 0.02 0.02 0.02 0.02 0.02 0.02 0.02 
0.02 0.02 0.02 0.02 0.02 0.02 0.02 0.02 0.02 
0.02 0.02 0.02 0.02 0.02 0.02 0.02 0.02 0.02 
0.02 0.02 0.02 0.02 0.02 0.02 0.02 0.02 0.02 
0.02 0.02 0.02 0.02 0.02 0.02 0.02 0.02 0.02 
0.02 0.02 0.02 0.02 0.02 0.02 0.02 0.02 0.02 
0.02 0.02 0.02 0.02 0.02 0.02 0.02 0.02 0.02 
0.02 0.02 0.02 0.02 0.02 0.02 0.02 0.02 0.02 
0.02 0.02 0.02 0.02 0.02 0.02 0.02 0.02 0.02 
0.02 0.02 0.02 0.02 0.02 0.02 0.02 0.02 0.02 
0.02 0.02 0.02 0.02 0.02 0.02 0.02 0.02 0.02 
0.02 0.02 0.02 0.02 0.02 0.02 0.02 0.02 0.02 
0.02 0.02 0.02 0.02 0.02 0.02 0.02 0.02 0.02 
0.02 0.02 0.02 0.02 0.02 0.02 0.02 0.02 0.02 
0.02 0.02 0.02 0.02 0.02 0.02 0.02 0.02 0.02 
0.02 0.02 0.02 0.02 0.02 0.02 0.02 0.02 0.02 
0.02 0.02 0.02 0.02 0.02 0.02 0.02 0.02 0.02 
0.02 0.02 0.02 0.02 0.02 0.02 0.02 0.02 0.02 
0.02 0.02 0.02 0.02 0.02 0.02 0.02 0.02 0.02 
0.02 0.02 0.02 0.02 0.02 0.02 0.02 0.02 0.02 
0.02 0.02 0.02 0.02 0.02 0.02 0.02 0.02 0.02 
0.02 0.02 0.02 0.02 0.02 0.02 0.02 0.02 0.02 
0.02 0.02 0.02 0.02 0.02 0.02 0.02 0.02 0.02 
0.02 0.02 0.02 0.02 0.02 0.02 0.02 0.02 0.02 
0.02 0.02 0.02 0.02 0.02 0.02 0.02 0.02 0.02 
0.02 0.02 0.02 0.02 0.02 0.02 0.02 0.02 0.02 
0.02 0.02 0.02 0.02 0.02 0.02 0.02 0.02 0.02 
0.02 0.02 0.02 0.02 0.02 0.02 0.02 0.02 0.02 
0.02 0.02 0.02 0.02 0.02 0.02 0.02 0.02 0.02 
0.02 0.02 0.02 0.02 0.02 0.02 0.02 0.02 0.02 
0.02 0.02 0.02 0.02 0.02 0.02 0.02 0.02 0.02 
0.02 0.02 0.02 0.02 0.02 0.02 0.02 0.02 0.02 
0.02 0.02 0.02 0.02 0.02 0.02 0.02 0.02 0.02 
0.02 0.02 0.02 0.02 0.02 0.02 0.02 0.02 0.02 
0.02 0.02 0.02 0.02 0.02 0.02 0.02 0.02 0.02 
0.02 0.02 0.02 0.02 0.02 0.02 0.02 0.02 0.02 
0.02 0.02 0.02 0.02 0.02 0.02 0.02 0.02 0.02 
0.02 0.02 0.02 0.02 0.02 0.02 0.02 0.02 0.02 
0.02 0.02 0.02 0.02 0.02 0.02 0.02 0.02 0.02 
0.02 0.02 0.02 0.02 0.02 0.02 0.02 0.02 0.02 
0.02 0.02 0.02 0.02 0.02 0.02 0.02 0.02 0.02 
0.02 0.02 0.02 0.02 0.02 0.02 0.02 0.02 0.02 
0.02 0.02 0.02 0.02 0.02 0.02 0.02 0.02 0.02 
0.02 0.02 0.02 0.02 0.02 0.02 0.02 0.02 0.02 
0.02 0.02 0.02 0.02 0.02 0.02 0.02 0.02 0.02 
0.02 0.02 0.02 0.02 0.02 0.02 0.02 0.02 0.02 
0.02 0.02 0.02 0.02 0.02 0.02 0.02 0.02 0.02 
0.02 0.02 0.02 0.02 0.02 0.02 0.02 0.02 0.02 
0.02 0.02 0.02 0.02 0.02 0.02 0.02 0.02 0.02 
0.02 0.02 0.02 0.02 0.02 0.02 0.02 0.02 0.02 
0.02 0.02 0.02 0.02 0.02 0.02 0.02 0.02 0.02 
0.02 0.02 0.02 0.02 0.02 0.02 0.02 0.02 0.02 
0.02 0.02 0.02 0.02 0.02 0.02 0.02 0.02 0.02 
0.02 0.02 0.02 0.02 0.02 0.02 0.02 0.02 0.02 
0.02 0.02 0.02 0.02 0.02 0.02 0.02 0.02 0.02 
0.02 0.02 0.02 0.02 0.02 0.02 0.02 0.02 0.02 
0.02 0.02 0.02 0.02 0.02 0.02 0.02 0.02 0.02 
0.02 0.02 0.02 0.02 0.02 0.02 0.02 0.02 0.02 
0.02 0.02 0.02 0.02 0.02 0.02 0.02 0.02 0.02 
0.02 0.02 0.02 0.02 0.02 0.02 0.02 0.02 0.02 
0.02 0.02 0.02 0.02 0.02 0.02 0.02 0.02 0.02 
0.02 0.02 0.02 0.02 0.02 0.02 0.02 0.02 0.02 
0.02 0.02 0.02 0.02 0.02 0.02 0.02 0.02 0.02 
0.02 0.02 0.02 0.02 0.02 0.02 0.02 0.02 0.02 
0.02 0.02 0.02 0.02 0.02 0.02 0.02 0.02 0.02 
0.02 0.02 0.02 0.02 0.02 0.02 0.02 0.02 0.02 
0.02 0.02 0.02 0.02 0.02 0.02 0.02 0.02 0.02 
0.02 0.02 0.02 0.02 0.02 0.02 0.02 0.02 0.02 
0.02 0.02 0.02 0.02 0.02 0.02 0.02 0.02 0.02 
0.02 0.02 0.02 0.02 0.02 0.02 0.02 0.02 0.02 
0.02 0.02 0.02 0.02 0.02 0.02 0.02 0.02 0.02 
0.02 0.02 0.02 0.02 0.02 0.02 0.02 0.02 0.02 
0.02 0.02 0.02 0.02 0.02 0.02 0.02 0.02 0.02 
0.02 0.02 0.02 0.02 0.02 0.02 0.02 0.02 0.02 
0.02 0.02 0.02 0.02 0.02 0.02 0.02 0.02 0.02 
0.02 0.02 0.02 0.02 0.02 0.02 0.02 0.02 0.02 
0.02 0.02 0.02 0.02 0.02 0.02 0.02 0.02 0.02 
0.02 0.02 0.02 0.02 0.02 0.02 0.02 0.02 0.02 
0.02 0.02 0.02 0.02 0.02 0.02 0.02 0.02 0.02 
0.02 0.02 0.02 0.02 0.02 0.02 0.02 0.02 0.02 
0.02 0.02 0.02 0.02 0.02 0.02 0.02 0.02 0.02 
0.02 0.02 0.02 0.02 0.02 0.02 0.02 0.02 0.02 
0.02 0.02 0.02 0.02 0.02 0.02 0.02 0.02 0.02 
0.02 0.02 0.02 0.02 0.02 0.02 0.02 0.02 0.02 
0.02 0.02 0.02 0.02 0.02 0.02 0.02 0.02 0.02 
0.02 0.02 0.02 0.02 0.02 0.02 0.02 0.02 0.02 
0.02 0.02 0.02 0.02 0.02 0.02 0.02 0.02 0.02 
0.02 0.02 0.02 0.02 0.02 0.02 0.02 0.02 0.02 
0.02 0.02 0.02 0.02 0.02 0.02 0.02 0.02 0.02 
0.02 0.02 0.02 0.02 0.02 0.02 0.02 0.02 0.02 
0.02 0.02 0.02 0.02 0.02 0.02 0.02 0.02 0.02 
0.02 0.02 0.02 0.02 0.02 0.02 0.02 0.02 0.02 
0.02 0.02 0.02 0.02 0.02 0.02 0.02 0.02 0.02 
0.02 0.02 0.02 0.02 0.02 0.02 0.02 0.02 0.02 
0.02 0.02 0.02 0.02 0.02 0.02 0.02 0.02 0.02 
0.02 0.02 0.02 0.02 0.02 0.02 0.02 0.02 0.02 
0.02 0.02 0.02 0.02 0.02 0.02 0.02 0.02 0.02 
0.02 0.02 0.02 0.02 0.02 0.02 0.02 0.02 0.02 
0.02 0.02 0.02 0.02 0.02 0.02 0.02 0.02 0.02 
0.02 0.02 0.02 0.02 0.02 0.02 0.02 0.02 0.02 
0.02 0.02 0.02 0.02 0.02 0.02 0.02 0.02 0.02 
0.02 0.02 0.02 0.02 0.02 0.02 0.02 0.02 0.02 
0.02 0.02 0.02 0.02 0.02 0.02 0.02 0.02 0.02 
0.02 0.02 0.02 0.02 0.02 0.02 0.02 0.02 0.02 
0.02 0.02 0.02 0.02 0.02 0.02 0.02 0.02 0.02 
0.02 0.02 0.02 0.02 0.02 0.02 0.02 0.02 0.02 
0.02 0.02 0.02 0.02 0.02 0.02 0.02 0.02 0.02 
0.02 0.02 0.02 0.02 0.02 0.02 0.02 0.02 0.02 
0.02 0.02 0.02 0.02 0.02 0.02 0.02 0.02 0.02 
0.02 0.02 0.02 0.02 0.02 0.02 0.02 0.02 0.02 
0.02 0.02 0.02 0.02 0.02 0.02 0.02 0.02 0.02 
0.02 0.02 0.02 0.02 0.02 0.02 0.02 0.02 0.02 
0.02 0.02 0.02 0.02 0.02 0.02 0.02 0.02 0.02 
0.02 0.02 0.02 0.02 0.02 0.02 0.02 0.02 0.02 
0.02 0.02 0.02 0.02 0.02 0.02 0.02 0.02 0.02 
0.02 0.02 0.02 0.02 0.02 0.02 0.02 0.02 0.02 
0.02 0.02 0.02 0.02 0.02 0.02 0.02 0.02 0.02 
0.02 0.02 0.02 0.02 0.02 0.02 0.02 0.02 0.02 
0.02 0.02 0.02 0.02 0.02 0.02 0.02 0.02 0.02 
0.02 0.02 0.02 0.02 0.02 0.02 0.02 0.02 0.02 
0.02 0.02 0.02 0.02 0.02 0.02 0.02 0.02 0.02 
0.02 0.02 0.02 0.02 0.02 0.02 0.02 0.02 0.02 
0.02 0.02 0.02 0.02 0.02 0.02 0.02 0.02 0.02 
0.02 0.02 0.02 0.02 0.02 0.02 0.02 0.02 0.02 
0.02 0.02 0.02 0.02 0.02 0.02 0.02 0.02 0.02 
0.02 0.02 0.02 0.02 0.02 0.02 0.02 0.02 0.02 
0.02 0.02 0.02 0.02 0.02 0.02 0.02 0.02 0.02 
0.02 0.02 0.02 0.02 0.02 0.02 0.02 0.02 0.02 
0.02 0.02 0.02 0.02 0.02 0.02 0.02 0.02 0.02 
0.02 0.02 0.02 0.02 0.02 0.02 0.02 0.02 0.02 
0.02 0.02 0.02 0.02 0.02 0.02 0.02 0.02 0.02 
0.02 0.02 0.02 0.02 0.02 0.02 0.02 0.02 0.02 
0.02 0.02 0.02 0.02 0.02 0.02 0.02 0.02 0.02 
0.02 0.02 0.02 0.02 0.02 0.02 0.02 0.02 0.02 
0.02 0.02 0.02 0.02 0.02 0.02 0.02 0.02 0.02 
0.02 0.02 0.02 0.02 0.02 0.02 0.02 0.02 0.02 
0.02 0.02 0.02 0.02 0.02 0.02 0.02 0.02 0.02 
0.02 0.02 0.02 0.02 0.02 0.02 0.02 0.02 0.02 
0.02 0.02 0.02 0.02 0.02 0.02 0.02 0.02 0.02 
0.02 0.02 0.02 0.02 0.02 0.02 0.02 0.02 0.02 
0.02 0.02 0.02 0.02 0.02 0.02 0.02 0.02 0.02 
0.02 0.02 0.02 0.02 0.02 0.02 0.02 0.02 0.02 
0.02 0.02 0.02 0.02 0.02 0.02 0.02 0.02 0.02 
0.02 0.02 0.02 0.02 0.02 0.02 0.02 0.02 0.02 
0.02 0.02 0.02 0.02 0.02 0.02 0.02 0.02 0.02 
0.02 0.02 0.02 0.02 0.02 0.02 0.02 0.02 0.02 
0.02 0.02 0.02 0.02 0.02 0.02 0.02 0.02 0.02 
0.02 0.02 0.02 0.02 0.02 0.02 0.02 0.02 0.02 
0.02 0.02 0.02 0.02 0.02 0.02 0.02 0.02 0.02 
0.02 0.02 0.02 0.02 0.02 0.02 0.02 0.02 0.02 
0.02 0.02 0.02 0.02 0.02 0.02 0.02 0.02 0.02 
0.02 0.02 0.02 0.02 0.02 0.02 0.02 0.02 0.02 
0.02 0.02 0.02 0.02 0.02 0.02 0.02 0.02 0.02 
0.02 0.02 0.02 0.02 0.02 0.02 0.02 0.02 0.02 
0.02 0.02 0.02 0.02 0.02 0.02 0.02 0.02 0.02 
0.02 0.02 0.02 0.02 0.02 0.02 0.02 0.02 0.02 
0.02 0.02 0.02 0.02 0.02 0.02 0.02 0.02 0.02 
0.02 0.02 0.02 0.02 0.02 0.02 0.02 0.02 0.02 
0.02 0.02 0.02 0.02 0.02 0.02 0.02 0.02 0.02 
0.02 0.02 0.02 0.02 0.02 0.02 0.02 0.02 0.02 
0.02 0.02 0.02 0.02 0.02 0.02 0.02 0.02 0.02 
0.02 0.02 0.02 0.02 0.02 0.02 0.02 0.02 0.02 
0.02 0.02 0.02 0.02 0.02 0.02 0.02 0.02 0.02 
0.02 0.02 0.02 0.02 0.02 0.02 0.02 0.02 0.02 
0.02 0.02 0.02 0.02 0.02 0.02 0.02 0.02 0.02 
0.02 0.02 0.02 0.02 0.02 0.02 0.02 0.02 0.02 
0.02 0.02 0.02 0.02 0.02 0.02 0.02 0.02 0.02 
0.02 0.02 0.02 0.02 0.02 0.02 0.02 0.02 0.02 
0.02 0.02 0.02 0.02 0.02 0.02 0.02 0.02 0.02 
0.02 0.02 0.02 0.02 0.02 0.02 0.02 0.02 0.02 
0.02 0.02 0.02 0.02 0.02 0.02 0.02 0.02 0.02 
0.02 0.02 0.02 0.02 0.02 0.02 0.02 0.02 0.02 
0.02 0.02 0.02 0.02 0.02 0.02 0.02 0.02 0.02 
0.02 0.02 0.02 0.02 0.02 0.02 0.02 0.02 0.02 
0.02 0.02 0.02 0.02 0.02 0.02 0.02 0.02 0.02 
0.02 0.02 0.02 0.02 0.02 0.02 0.02 0.02 0.02 
0.02 0.02 0.02 0.02 0.02 0.02 0.02 0.02 0.02 
0.02 0.02 0.02 0.02 0.02 0.02 0.02 0.02 0.02 
0.02 0.02 0.02 0.02 0.02 0.02 0.02 0.02 0.02 
0.02 0.02 0.02 0.02 0.02 0.02 0.02 0.02 0.02 
0.02 0.02 0.02 0.02 0.02 0.02 0.02 0.02 0.02 
0.02 0.02 0.02 0.02 0.02 0.02 0.02 0.02 0.02 
0.02 0.02 0.02 0.02 0.02 0.02 0.02 0.02 0.02 
0.02 0.02 0.02 0.02 0.02 0.02 0.02 0.02 0.02 
0.02 0.02 0.02 0.02 0.02 0.02 0.02 0.02 0.02 
0.02 0.02 0.02 0.02 0.02 0.02 0.02 0.02 0.02 
0.02 0.02 0.02 0.02 0.02 0.02 0.02 0.02 0.02 
0.02 0.02 0.02 0.02 0.02 0.02 0.02 0.02 0.02 
0.02 0.02 0.02 0.02 0.02 0.02 0.02 0.02 0.02 
0.02 0.02 0.02 0.02 0.02 0.02 0.02 0.02 0.02 
0.02 0.02 0.02 0.02 0.02 0.02 0.02 0.02 0.02 
0.02 0.02 0.02 0.02 0.02 0.02 0.02 0.02 0.02 
0.02 0.02 0.02 0.02 0.02 0.02 0.02 0.02 0.02 
0.02 0.02 0.02 0.02 0.02 0.02 0.02 0.02 0.02 
0.02 0.02 0.02 0.02 0.02 0.02 0.02 0.02 0.02 
0.02 0.02 0.02 0.02 0.02 0.02 0.02 0.02 0.02 
0.02 0.02 0.02 0.02 0.02 0.02 0.02 0.02 0.02 
0.02 0.02 0.02 0.02 0.02 0.02 0.02 0.02 0.02 
0.02 0.02 0.02 0.02 0.02 0.02 0.02 0.02 0.02 
0.02 0.02 0.02 0.02 0.02 0.02 0.02 0.02 0.02 
0.02 0.02 0.02 0.02 0.02 0.02 0.02 0.02 0.02 
0.02 0.02 0.02 0.02 0.02 0.02 0.02 0.02 0.02 
0.02 0.02 0.02 0.02 0.02 0.02 0.02 0.02 0.02 
0.02 0.02 0.02 0.02 0.02 0.02 0.02 0.02 0.02 
0.02 0.02 0.02 0.02 0.02 0.02 0.02 0.02 0.02 
0.02 0.02 0.02 0.02 0.02 0.02 0.02 0.02 0.02 
0.02 0.02 0.02 0.02 0.02 0.02 0.02 0.02 0.02 
0.02 0.02 0.02 0.02 0.02 0.02 0.02 0.02 0.02 
0.02 0.02 0.02 0.02 0.02 0.02 0.02 0.02 0.02 
0.02 0.02 0.02 0.02 0.02 0.02 0.02 0.02 0.02 
0.02 0.02 0.02 0.02 0.02 0.02 0.02 0.02 0.02 
0.02 0.02 0.02 0.02 0.02 0.02 0.02 0.02 0.02 
0.02 0.02 0.02 0.02 0.02 0.02 0.02 0.02 0.02 
0.02 0.02 0.02 0.02 0.02 0.02 0.02 0.02 0.02 
0.02 0.02 0.02 0.02 0.02 0.02 0.02 0.02 0.02 
0.02 0.02 0.02 0.02 0.02 0.02 0.02 0.02 0.02 
0.02 0.02 0.02 0.02 0.02 0.02 0.02 0.02 0.02 
0.02 0.02 0.02 0.02 0.02 0.02 0.02 0.02 0.02 
0.02 0.02 0.02 0.02 0.02 0.02 0.02 0.02 0.02 
0.02 0.02 0.02 0.02 0.02 0.02 0.02 0.02 0.02 
0.02 0.02 0.02 0.02 0.02 0.02 0.02 0.02 0.02 
0.02 0.02 0.02 0.02 0.02 0.02 0.02 0.02 0.02 
0.02 0.02 0.02 0.02 0.02 0.02 0.02 0.02 0.02 
0.02 0.02 0.02 0.02 0.02 0.02 0.02 0.02 0.02 
0.02 0.02 0.02 0.02 0.02 0.02 0.02 0.02 0.02 
0.02 0.02 0.02 0.02 0.02 0.02 0.02 0.02 0.02 
0.02 0.02 0.02 0.02 0.02 0.02 0.02 0.02 0.02 
0.02 0.02 0.02 0.02 0.02 0.02 0.02 0.02 0.02 
0.02 0.02 0.02 0.02 0.02 0.02 0.02 0.02 0.02 
0.02 0.02 0.02 0.02 0.02 0.02 0.02 0.02 0.02 
0.02 0.02 0.02 0.02 0.02 0.02 0.02 0.02 0.02 
0.02 0.02 0.02 0.02 0.02 0.02 0.02 0.02 0.02 
0.02 0.02 0.02 0.02 0.02 0.02 0.02 0.02 0.02 
0.02 0.02 0.02 0.02 0.02 0.02 0.02 0.02 0.02 
0.02 0.02 0.02 0.02 0.02 0.02 0.02 0.02 0.02 
0.02 0.02 0.02 0.02 0.02 0.02 0.02 0.02 0.02 
0.02 0.02 0.02 0.02 0.02 0.02 0.02 0.02 0.02 
0.02 0.02 0.02 0.02 0.02 0.02 0.02 0.02 0.02 
0.02 0.02 0.02 0.02 0.02 0.02 0.02 0.02 0.02 
0.02 0.02 0.02 0.02 0.02 0.02 0.02 0.02 0.02 
0.02 0.02 0.02 0.02 0.02 0.02 0.02 0.02 0.02 
0.02 0.02 0.02 0.02 0.02 0.02 0.02 0.02 0.02 
0.02 0.02 0.02 0.02 0.02 0.02 0.02 0.02 0.02 
0.02 0.02 0.02 0.02 0.02 0.02 0.02 0.02 0.02 
0.02 0.02 0.02 0.02 0.02 0.02 0.02 0.02 0.02 
0.02 0.02 0.02 0.02 0.02 0.02 0.02 0.02 0.02 
0.02 0.02 0.02 0.02 0.02 0.02 0.02 0.02 0.02 
0.02 0.02 0.02 0.02 0.02 0.02 0.02 0.02 0.02 
0.02 0.02 0.02 0.02 0.02 0.02 0.02 0.02 0.02 
0.02 0.02 0.02 0.02 0.02 0.02 0.02 0.02 0.02 
0.02 0.02 0.02 0.02 0.02 0.02 0.02 0.02 0.02 
0.02 0.02 0.02 0.02 0.02 0.02 0.02 0.02 0.02 
0.02 0.02 0.02 0.02 0.02 0.02 0.02 0.02 0.02 
0.02 0.02 0.02 0.02 0.02 0.02 0.02 0.02 0.02 
0.02 0.02 0.02 0.02 0.02 0.02 0.02 0.02 0.02 
0.02 0.02 0.02 0.02 0.02 0.02 0.02 0.02 0.02 
0.02 0.02 0.02 0.02 0.02 0.02 0.02 0.02 0.02 
0.02 0.02 0.02 0.02 0.02 0.02 0.02 0.02 0.02 
0.02 0.02 0.02 0.02 0.02 0.02 0.02 0.02 0.02 
0.02 0.02 0.02 0.02 0.02 0.02 0.02 0.02 0.02 
0.02 0.02 0.02 0.02 0.02 0.02 0.02 0.02 0.02 
0.02 0.02 0.02 0.02 0.02 0.02 0.02 0.02 0.02 
0.02 0.02 0.02 0.02 0.02 0.02 0.02 0.02 0.02 
0.02 0.02 0.02 0.02 0.02 0.02 0.02 0.02 0.02 
0.02 0.02 0.02 0.02 0.02 0.02 0.02 0.02 0.02 
0.02 0.02 0.02 0.02 0.02 0.02 0.02 0.02 0.02 
0.02 0.02 0.02 0.02 0.02 0.02 0.02 0.02 0.02 
0.02 0.02 0.02 0.02 0.02 0.02 0.02 0.02 0.02 
0.02 0.02 0.02 0.02 0.02 0.02 0.02 0.02 0.02 
0.02 0.02 0.02 0.02 0.02 0.02 0.02 0.02 0.02 
0.02 0.02 0.02 0.02 0.02 0.02 0.02 0.02 0.02 
0.02 0.02 0.02 0.02 0.02 0.02 0.02 0.02 0.02 
0.02 0.02 0.02 0.02 0.02 0.02 0.02 0.02 0.02 
0.02 0.02 0.02 0.02 0.02 0.02 0.02 0.02 0.02 
0.02 0.02 0.02 0.02 0.02 0.02 0.02 0.02 0.02 
0.02 0.02 0.02 0.02 0.02 0.02 0.02 0.02 0.02 
0.02 0.02 0.02 0.02 0.02 0.02 0.02 0.02 0.02 
0.02 0.02 0.02 0.02 0.02 0.02 0.02 0.02 0.02 
0.02 0.02 0.02 0.02 0.02 0.02 0.02 0.02 0.02 
0.02 0.02 0.02 0.02 0.02 0.02 0.02 0.02 0.02 
0.02 0.02 0.02 0.02 0.02 0.02 0.02 0.02 0.02 
0.02 0.02 0.02 0.02 0.02 0.02 0.02 0.02 0.02 
0.02 0.02 0.02 0.02 0.02 0.02 0.02 0.02 0.02 
0.02 0.02 0.02 0.02 0.02 0.02 0.02 0.02 0.02 
0.02 0.02 0.02 0.02 0.02 0.02 0.02 0.02 0.02 
0.02 0.02 0.02 0.02 0.02 0.02 0.02 0.02 0.02 
0.02 0.02 0.02 0.02 0.02 0.02 0.02 0.02 0.02 
0.02 0.02 0.02 0.02 0.02 0.02 0.02 0.02 0.02 
0.02 0.02 0.02 0.02 0.02 0.02 0.02 0.02 0.02 
0.02 0.02 0.02 0.02 0.02 0.02 0.02 0.02 0.02 
0.02 0.02 0.02 0.02 0.02 0.02 0.02 0.02 0.02 
0.02 0.02 0.02 0.02 0.02 0.02 0.02 0.02 0.02 
0.02 0.02 0.02 0.02 0.02 0.02 0.02 0.02 0.02 
0.02 0.02 0.02 0.02 0.02 0.02 0.02 0.02 0.02 
0.02 0.02 0.02 0.02 0.02 0.02 0.02 0.02 0.02 
0.02 0.02 0.02 0.02 0.02 0.02 0.02 0.02 0.02 
0.02 0.02 0.02 0.02 0.02 0.02 0.02 0.02 0.02 
0.02 0.02 0.02 0.02 0.02 0.02 0.02 0.02 0.02 
0.02 0.02 0.02 0.02 0.02 0.02 0.02 0.02 0.02 
0.02 0.02 0.02 0.02 0.02 0.02 0.02 0.02 0.02 
0.02 0.02 0.02 0.02 0.02 0.02 0.02 0.02 0.02 
0.02 0.02 0.02 0.02 0.02 0.02 0.02 0.02 0.02 
0.02 0.02 0.02 0.02 0.02 0.02 0.02 0.02 0.02 
0.02 0.02 0.02 0.02 0.02 0.02 0.02 0.02 0.02 
0.02 0.02 0.02 0.02 0.02 0.02 0.02 0.02 0.02 
0.02 0.02 0.02 0.02 0.02 0.02 0.02 0.02 0.02 
0.02 0.02 0.02 0.02 0.02 0.02 0.02 0.02 0.02 
0.02 0.02 0.02 0.02 0.02 0.02 0.02 0.02 0.02 
0.02 0.02 0.02 0.02 0.02 0.02 0.02 0.02 0.02 
0.02 0.02 0.02 0.02 0.02 0.02 0.02 0.02 0.02 
0.02 0.02 0.02 0.02 0.02 0.02 0.02 0.02 0.02 
0.02 0.02 0.02 0.02 0.02 0.02 0.02 0.02 0.02 
0.02 0.02 0.02 0.02 0.02 0.02 0.02 0.02 0.02 
0.02 0.02 0.02 0.02 0.02 0.02 0.02 0.02 0.02 
0.02 0.02 0.02 0.02 0.02 0.02 0.02 0.02 0.02 
0.02 0.02 0.02 0.02 0.02 0.02 0.02 0.02 0.02 
0.02 0.02 0.02 0.02 0.02 0.02 0.02 0.02 0.02 
0.02 0.02 0.02 0.02 0.02 0.02 0.02 0.02 0.02 
0.02 0.02 0.02 0.02 0.02 0.02 0.02 0.02 0.02 
0.02 0.02 0.02 0.02 0.02 0.02 0.02 0.02 0.02 
0.02 0.02 0.02 0.02 0.02 0.02 0.02 0.02 0.02 
0.02 0.02 0.02 0.02 0.02 0.02 0.02 0.02 0.02 
0.02 0.02 0.02 0.02 0.02 0.02 0.02 0.02 0.02 
0.02 0.02 0.02 0.02 0.02 0.02 0.02 0.02 0.02 
0.02 0.02 0.02 0.02 0.02 0.02 0.02 0.02 0.02 
0.02 0.02 0.02 0.02 0.02 0.02 0.02 0.02 0.02 
0.02 0.02 0.02 0.02 0.02 0.02 0.02 0.02 0.02 
0.02 0.02 0.02 0.02 0.02 0.02 0.02 0.02 0.02 
0.02 0.02 0.02 0.02 0.02 0.02 0.02 0.02 0.02 
0.02 0.02 0.02 0.02 0.02 0.02 0.02 0.02 0.02 
0.02 0.02 0.02 0.02 0.02 0.02 0.02 0.02 0.02 
0.02 0.02 0.02 0.02 0.02 0.02 0.02 0.02 0.02 
0.02 0.02 0.02 0.02 0.02 0.02 0.02 0.02 0.02 
0.02 0.02 0.02 0.02 0.02 0.02 0.02 0.02 0.02 
0.02 0.02 0.02 0.02 0.02 0.02 0.02 0.02 0.02 
0.02 0.02 0.02 0.02 0.02 0.02 0.02 0.02 0.02 
0.02 0.02 0.02 0.02 0.02 0.02 0.02 0.02 0.02 
0.02 0.02 0.02 0.02 0.02 0.02 0.02 0.02 0.02 
0.02 0.02 0.02 0.02 0.02 0.02 0.02 0.02 0.02 
0.02 0.02 0.02 0.02 0.02 0.02 0.02 0.02 0.02 
0.02 0.02 0.02 0.02 0.02 0.02 0.02 0.02 0.02 
0.02 0.02 0.02 0.02 0.02 0.02 0.02 0.02 0.02 
0.02 0.02 0.02 0.02 0.02 0.02 0.02 0.02 0.02 
0.02 0.02 0.02 0.02 0.02 0.02 0.02 0.02 0.02 
0.02 0.02 0.02 0.02 0.02 0.02 0.02 0.02 0.02 
0.02 0.02 0.02 0.02 0.02 0.02 0.02 0.02 0.02 
0.02 0.02 0.02 0.02 0.02 0.02 0.02 0.02 0.02 
0.02 0.02 0.02 0.02 0.02 0.02 0.02 0.02 0.02 
0.02 0.02 0.02 0.02 0.02 0.02 0.02 0.02 0.02 
0.02 0.02 0.02 0.02 0.02 0.02 0.02 0.02 0.02 
0.02 0.02 0.02 0.02 0.02 0.02 0.02 0.02 0.02 
0.02 0.02 0.02 0.02 0.02 0.02 0.02 0.02 0.02 
0.02 0.02 0.02 0.02 0.02 0.02 0.02 0.02 0.02 
0.02 0.02 0.02 0.02 0.02 0.02 0.02 0.02 0.02 
0.02 0.02 0.02 0.02 0.02 0.02 0.02 0.02 0.02 
0.02 0.02 0.02 0.02 0.02 0.02 0.02 0.02 0.02 
0.02 0.02 0.02 0.02 0.02 0.02 0.02 0.02 0.02 
0.02 0.02 0.02 0.02 0.02 0.02 0.02 0.02 0.02 
0.02 0.02 0.02 0.02 0.02 0.02 0.02 0.02 0.02 
0.02 0.02 0.02 0.02 0.02 0.02 0.02 0.02 0.02 
0.02 0.02 0.02 0.02 0.02 0.02 0.02 0.02 0.02 
0.02 0.02 0.02 0.02 0.02 0.02 0.02 0.02 0.02 
0.02 0.02 0.02 0.02 0.02 0.02 0.02 0.02 0.02 
0.02 0.02 0.02 0.02 0.02 0.02 0.02 0.02 0.02 
0.02 0.02 0.02 0.02 0.02 0.02 0.02 0.02 0.02 
0.02 0.02 0.02 0.02 0.02 0.02 0.02 0.02 0.02 
0.02 0.02 0.02 0.02 0.02 0.02 0.02 0.02 0.02 
0.02 0.02 0.02 0.02 0.02 0.02 0.02 0.02 0.02 
0.02 0.02 0.02 0.02 0.02 0.02 0.02 0.02 0.02 
0.02 0.02 0.02 0.02 0.02 0.02 0.02 0.02 0.02 
0.02 0.02 0.02 0.02 0.02 0.02 0.02 0.02 0.02 
0.02 0.02 0.02 0.02 0.02 0.02 0.02 0.02 0.02 
0.02 0.02 0.02 0.02 0.02 0.02 0.02 0.02 0.02 
0.02 0.02 0.02 0.02 0.02 0.02 0.02 0.02 0.02 
0.02 0.02 0.02 0.02 0.02 0.02 0.02 0.02 0.02 
0.02 0.02 0.02 0.02 0.02 0.02 0.02 0.02 0.02 
0.02 0.02 0.02 0.02 0.02 0.02 0.02 0.02 0.02 
0.02 0.02 0.02 0.02 0.02 0.02 0.02 0.02 0.02 
0.02 0.02 0.02 0.02 0.02 0.02 0.02 0.02 0.02 
0.02 0.02 0.02 0.02 0.02 0.02 0.02 0.02 0.02 
0.02 0.02 0.02 0.02 0.02 0.02 0.02 0.02 0.02 
0.02 0.02 0.02 0.02 0.02 0.02 0.02 0.02 0.02 
0.02 0.02 0.02 0.02 0.02 0.02 0.02 0.02 0.02 
0.02 0.02 0.02 0.02 0.02 0.02 0.02 0.02 0.02 
0.02 0.02 0.02 0.02 0.02 0.02 0.02 0.02 0.02 
0.02 0.02 0.02 0.02 0.02 0.02 0.02 0.02 0.02 
0.02 0.02 0.02 0.02 0.02 0.02 0.02 0.02 0.02 
0.02 0.02 0.02 0.02 0.02 0.02 0.02 0.02 0.02 
0.02 0.02 0.02 0.02 0.02 0.02 0.02 0.02 0.02 
0.02 0.02 0.02 0.02 0.02 0.02 0.02 0.02 0.02 
0.02 0.02 0.02 0.02 0.02 0.02 0.02 0.02 0.02 
0.02 0.02 0.02 0.02 0.02 0.02 0.02 0.02 0.02 
0.02 0.02 0.02 0.02 0.02 0.02 0.02 0.02 0.02 
0.02 0.02 0.02 0.02 0.02 0.02 0.02 0.02 0.02 
0.02 0.02 0.02 0.02 0.02 0.02 0.02 0.02 0.02 
0.02 0.02 0.02 0.02 0.02 0.02 0.02 0.02 0.02 
0.02 0.02 0.02 0.02 0.02 0.02 0.02 0.02 0.02 
0.02 0.02 0.02 0.02 0.02 0.02 0.02 0.02 0.02 
0.02 0.02 0.02 0.02 0.02 0.02 0.02 0.02 0.02 
0.02 0.02 0.02 0.02 0.02 0.02 0.02 0.02 0.02 
0.02 0.02 0.02 0.02 0.02 0.02 0.02 0.02 0.02 
0.02 0.02 0.02 0.02 0.02 0.02 0.02 0.02 0.02 
0.02 0.02 0.02 0.02 0.02 0.02 0.02 0.02 0.02 
0.02 0.02 0.02 0.02 0.02 0.02 0.02 0.02 0.02 
0.02 0.02 0.02 0.02 0.02 0.02 0.02 0.02 0.02 
0.02 0.02 0.02 0.02 0.02 0.02 0.02 0.02 0.02 
0.02 0.02 0.02 0.02 0.02 0.02 0.02 0.02 0.02 
0.02 0.02 0.02 0.02 0.02 0.02 0.02 0.02 0.02 
0.02 0.02 0.02 0.02 0.02 0.02 0.02 0.02 0.02 
0.02 0.02 0.02 0.02 0.02 0.02 0.02 0.02 0.02 
0.02 0.02 0.02 0.02 0.02 0.02 0.02 0.02 0.02 
0.02 0.02 0.02 0.02 0.02 0.02 0.02 0.02 0.02 
0.02 0.02 0.02 0.02 0.02 0.02 0.02 0.02 0.02 
0.02 0.02 0.02 0.02 0.02 0.02 0.02 0.02 0.02 
0.02 0.02 0.02 0.02 0.02 0.02 0.02 0.02 0.02 
0.02 0.02 0.02 0.02 0.02 0.02 0.02 0.02 0.02 
0.02 0.02 0.02 0.02 0.02 0.02 0.02 0.02 0.02 
0.02 0.02 0.02 0.02 0.02 0.02 0.02 0.02 0.02 
0.02 0.02 0.02 0.02 0.02 0.02 0.02 0.02 0.02 
0.02 0.02 0.02 0.02 0.02 0.02 0.02 0.02 0.02 
0.02 0.02 0.02 0.02 0.02 0.02 0.02 0.02 0.02 
0.02 0.02 0.02 0.02 0.02 0.02 0.02 0.02 0.02 
0.02 0.02 0.02 0.02 0.02 0.02 0.02 0.02 0.02 
0.02 0.02 0.02 0.02 0.02 0.02 0.02 0.02 0.02 
0.02 0.02 0.02 0.02 0.02 0.02 0.02 0.02 0.02 
0.02 0.02 0.02 0.02 0.02 0.02 0.02 0.02 0.02 
0.02 0.02 0.02 0.02 0.02 0.02 0.02 0.02 0.02 
0.02 0.02 0.02 0.02 0.02 0.02 0.02 0.02 0.02 
0.02 0.02 0.02 0.02 0.02 0.02 0.02 0.02 0.02 
0.02 0.02 0.02 0.02 0.02 0.02 0.02 0.02 0.02 
0.02 0.02 0.02 0.02 0.02 0.02 0.02 0.02 0.02 
0.02 0.02 0.02 0.02 0.02 0.02 0.02 0.02 0.02 
0.02 0.02 0.02 0.02 0.02 0.02 0.02 0.02 0.02 
0.02 0.02 0.02 0.02 0.02 0.02 0.02 0.02 0.02 
0.02 0.02 0.02 0.02 0.02 0.02 0.02 0.02 0.02 
0.02 0.02 0.02 0.02 0.02 0.02 0.02 0.02 0.02 
0.02 0.02 0.02 0.02 0.02 0.02 0.02 0.02 0.02 
0.02 0.02 0.02 0.02 0.02 0.02 0.02 0.02 0.02 
0.02 0.02 0.02 0.02 0.02 0.02 0.02 0.02 0.02 
0.02 0.02 0.02 0.02 0.02 0.02 0.02 0.02 0.02 
0.02 0.02 0.02 0.02 0.02 0.02 0.02 0.02 0.02 
0.02 0.02 0.02 0.02 0.02 0.02 0.02 0.02 0.02 
0.02 0.02 0.02 0.02 0.02 0.02 0.02 0.02 0.02 
0.02 0.02 0.02 0.02 0.02 0.02 0.02 0.02 0.02 
0.02 0.02 0.02 0.02 0.02 0.02 0.02 0.02 0.02 
0.02 0.02 0.02 0.02 0.02 0.02 0.02 0.02 0.02 
0.02 0.02 0.02 0.02 0.02 0.02 0.02 0.02 0.02 
0.02 0.02 0.02 0.02 0.02 0.02 0.02 0.02 0.02 
0.02 0.02 0.02 0.02 0.02 0.02 0.02 0.02 0.02 
0.02 0.02 0.02 0.02 0.02 0.02 0.02 0.02 0.02 
0.02 0.02 0.02 0.02 0.02 0.02 0.02 0.02 0.02 
0.02 0.02 0.02 0.02 0.02 0.02 0.02 0.02 0.02 
0.02 0.02 0.02 0.02 0.02 0.02 0.02 0.02 0.02 
0.02 0.02 0.02 0.02 0.02 0.02 0.02 0.02 0.02 
0.02 0.02 0.02 0.02 0.02 0.02 0.02 0.02 0.02 
0.02 0.02 0.02 0.02 0.02 0.02 0.02 0.02 0.02 
0.02 0.02 0.02 0.02 0.02 0.02 0.02 0.02 0.02 
0.02 0.02 0.02 0.02 0.02 0.02 0.02 0.02 0.02 
0.02 0.02 0.02 0.02 0.02 0.02 0.02 0.02 0.02 
0.02 0.02 0.02 0.02 0.02 0.02 0.02 0.02 0.02 
0.02 0.02 0.02 0.02 0.02 0.02 0.02 0.02 0.02 
0.02 0.02 0.02 0.02 0.02 0.02 0.02 0.02 0.02 
0.02 0.02 0.02 0.02 0.02 0.02 0.02 0.02 0.02 
0.02 0.02 0.02 0.02 0.02 0.02 0.02 0.02 0.02 
0.02 0.02 0.02 0.02 0.02 0.02 0.02 0.02 0.02 
0.02 0.02 0.02 0.02 0.02 0.02 0.02 0.02 0.02 
0.02 0.02 0.02 0.02 0.02 0.02 0.02 0.02 0.02 
0.02 0.02 0.02 0.02 0.02 0.02 0.02 0.02 0.02 
0.02 0.02 0.02 0.02 0.02 0.02 0.02 0.02 0.02 
0.02 0.02 0.02 0.02 0.02 0.02 0.02 0.02 0.02 
0.02 0.02 0.02 0.02 0.02 0.02 0.02 0.02 0.02 
0.02 0.02 0.02 0.02 0.02 0.02 0.02 0.02 0.02 
0.02 0.02 0.02 0.02 0.02 0.02 0.02 0.02 0.02 
0.02 0.02 0.02 0.02 0.02 0.02 0.02 0.02 0.02 
0.02 0.02 0.02 0.02 0.02 0.02 0.02 0.02 0.02 
0.02 0.02 0.02 0.02 0.02 0.02 0.02 0.02 0.02 
0.02 0.02 0.02 0.02 0.02 0.02 0.02 0.02 0.02 
0.02 0.02 0.02 0.02 0.02 0.02 0.02 0.02 0.02 
0.02 0.02 0.02 0.02 0.02 0.02 0.02 0.02 0.02 
0.02 0.02 0.02 0.02 0.02 0.02 0.02 0.02 0.02 
0.02 0.02 0.02 0.02 0.02 0.02 0.02 0.02 0.02 
0.02 0.02 0.02 0.02 0.02 0.02 0.02 0.02 0.02 
0.02 0.02 0.02 0.02 0.02 0.02 0.02 0.02 0.02 
0.02 0.02 0.02 0.02 0.02 0.02 0.02 0.02 0.02 
0.02 0.02 0.02 0.02 0.02 0.02 0.02 0.02 0.02 
0.02 0.02 0.02 0.02 0.02 0.02 0.02 0.02 0.02 
0.02 0.02 0.02 0.02 0.02 0.02 0.02 0.02 
POINT_DATA 12669
FIELD FieldData 1
Bed_Elev_m 1 12669 double
0 0 0 0 0 0 0 0 0 
0 0 0 0 0 0 0 0 0 
0 0 0 0 0 0 0 0 0 
0 0 0 0 0 0 0 0 0 
0 0 0 0 0 0 0 0 0 
0 0 0 0 0 0 0 0 0 
0 0 0 0 0 0 0 0 0 
0 0 0 0 0 0 0 0 0 
0 0 0 0 0 0 0 0 0 
0 0 0 0 0 0 0 0 0 
0 0 0 0 0 0 0 0 0 
0 0 0 0 0 0 0 0 0 
0 0 0 0 0 0 0 0 0 
0 0 0 0 0 0 0 0 0 
0 0 0 0 0 0 0 0 0 
0 0 0 0 0 0 0 0 0 
0 0 0 0 0 0 0 0 0 
0 0 0 0 0 0 0 0 0 
0 0 0 0 0 0 0 0 0 
0 0 0 0 0 0 0 0 0 
0 0 0 0 0 0 0 0 0 
0 0 0 0 0 0 0 0 0 
0 0 0 0 0 0 0 0 0 
0 0 0 0 0 0 0 0 0 
0 0 0 0 0 0 0 0 0 
0 0 0 0 0 0 0 0 0 
0 0 0 0 0 0 0 0 0 
0 0 0 0 0 0 0 0 0 
0 0 0 0 0 0 0 0 0 
0 0 0 0 0 0 0 0 0 
0 0 0 0 0 0 0 0 0 
0 0 0 0 0 0 0 0 0 
0 0 0 0 0 0 0 0 0 
0 0 0 0 0 0 0 0 0 
0 0 0 0 0 0 0 0 0 
0 0 0 0 0 0 0 0 0 
0 0 0 0 0 0 0 0 0 
0 0 0 0 0 0 0 0 0 
0 0 0 0 0 0 0 0 0 
0 0 0 0 0 0 0 0 0 
0 0 0 0 0 0 0 0 0 
0 0 0 0 0 0 0 0 0 
0 0 0 0 0 0 0 0 0 
0 0 0 0 0 0 0 0 0 
0 0 0 0 0 0 0 0 0 
0 0 0 0 0 0 0 0 0 
0 0 0 0 0 0 0 0 0 
0 0 0 0 0 0 0 0 0 
0 0 0 0 0 0 0 0 0 
0 0 0 0 0 0 0 0 0 
0 0 0 0 0 0 0 0 0 
0 0 0 0 0 0 0 0 0 
0 0 0 0 0 0 0 0 0 
0 0 0 0 0 0 0 0 0 
0 0 0 0 0 0 0 0 0 
0 0 0 0 0 0 0 0 0 
0 0 0 0 0 0 0 0 0 
0 0 0 0 0 0 0 0 0 
0 0 0 0 0 0 0 0 0 
0 0 0 0 0 0 0 0 0 
0 0 0 0 0 0 0 0 0 
0 0 0 0 0 0 0 0 0 
0 0 0 0 0 0 0 0 0 
0 0 0 0 0 0 0 0 0 
0 0 0 0 0 0 0 0 0 
0 0 0 0 0 0 0 0 0 
0 0 0 0 0 0 0 0 0 
0 0 0 0 0 0 0 0 0 
0 0 0 0 0 0 0 0 0 
0 0 0 0 0 0 0 0 0 
0 0 0 0 0 0 0 0 0 
0 0 0 0 0 0 0 0 0 
0 0 0 0 0 0 0 0 0 
0 0 0 0 0 0 0 0 0 
0 0 0 0 0 0 0 0 0 
0 0 0 0 0 0 0 0 0 
0 0 0 0 0 0 0 0 0 
0 0 0 0 0 0 0 0 0 
0 0 0 0 0 0 0 0 0 
0 0 0 0 0 0 0 0 0 
0 0 0 0 0 0 0 0 0 
0 0 0 0 0 0 0 0 0 
0 0 0 0 0 0 0 0 0 
0 0 0 0 0 0 0 0 0 
0 0 0 0 0 0 0 0 0 
0 0 0 0 0 0 0 0 0 
0 0 0 0 0 0 0 0 0 
0 0 0 0 0 0 0 0 0 
0 0 0 0 0 0 0 0 0 
0 0 0 0 0 0 0 0 0 
0 0 0 0 0 0 0 0 0 
0 0 0 0 0 0 0 0 0 
0 0 0 0 0 0 0 0 0 
0 0 0 0 0 0 0 0 0 
0 0 0 0 0 0 0 0 0 
0 0 0 0 0 0 0 0 0 
0 0 0 0 0 0 0 0 0 
0 0 0 0 0 0 0 0 0 
0 0 0 0 0 0 0 0 0 
0 0 0 0 0 0 0 0 0 
0 0 0 0 0 0 0 0 0 
0 0 0 0 0 0 0 0 0 
0 0 0 0 0 0 0 0 0 
0 0 0 0 0 0 0 0 0 
0 0 0 0 0 0 0 0 0 
0 0 0 0 0 0 0 0 0 
0 0 0 0 0 0 0 0 0 
0 0 0 0 0 0 0 0 0 
0 0 0 0 0 0 0 0 0 
0 0 0 0 0 0 0 0 0 
0 0 0 0 0 0 0 0 0 
0 0 0 0 0 0 0 0 0 
0 0 0 0 0 0 0 0 0 
0 0 0 0 0 0 0 0 0 
0 0 0 0 0 0 0 0 0 
0 0 0 0 0 0 0 0 0 
0 0 0 0 0 0 0 0 0 
0 0 0 0 0 0 0 0 0 
0 0 0 0 0 0 0 0 0 
0 0 0 0 0 0 0 0 0 
0 0 0 0 0 0 0 0 0 
0 0 0 0 0 0 0 0 0 
0 0 0 0 0 0 0 0 0 
0 0 0 0 0 0 0 0 0 
0 0 0 0 0 0 0 0 0 
0 0 0 0 0 0 0 0 0 
0 0 0 0 0 0 0 0 0 
0 0 0 0 0 0 0 0 0 
0 0 0 0 0 0 0 0 0 
0 0 0 0 0 0 0 0 0 
0 0 0 0 0 0 0 0 0 
0 0 0 0 0 0 0 0 0 
0 0 0 0 0 0 0 0 0 
0 0 0 0 0 0 0 0 0 
0 0 0 0 0 0 0 0 0 
0 0 0 0 0 0 0 0 0 
0 0 0 0 0 0 0 0 0 
0 0 0 0 0 0 0 0 0 
0 0 0 0 0 0 0 0 0 
0 0 0 0 0 0 0 0 0 
0 0 0 0 0 0 0 0 0 
0 0 0 0 0 0 0 0 0 
0 0 0 0 0 0 0 0 0 
0 0 0 0 0 0 0 0 0 
0 0 0 0 0 0 0 0 0 
0 0 0 0 0 0 0 0 0 
0 0 0 0 0 0 0 0 0 
0 0 0 0 0 0 0 0 0 
0 0 0 0 0 0 0 0 0 
0 0 0 0 0 0 0 0 0 
0 0 0 0 0 0 0 0 0 
0 0 0 0 0 0 0 0 0 
0 0 0 0 0 0 0 0 0 
0 0 0 0 0 0 0 0 0 
0 0 0 0 0 0 0 0 0 
0 0 0 0 0 0 0 0 0 
0 0 0 0 0 0 0 0 0 
0 0 0 0 0 0 0 0 0 
0 0 0 0 0 0 0 0 0 
0 0 0 0 0 0 0 0 0 
0 0 0 0 0 0 0 0 0 
0 0 0 0 0 0 0 0 0 
0 0 0 0 0 0 0 0 0 
0 0 0 0 0 0 0 0 0 
0 0 0 0 0 0 0 0 0 
0 0 0 0 0 0 0 0 0 
0 0 0 0 0 0 0 0 0 
0 0 0 0 0 0 0 0 0 
0 0 0 0 0 0 0 0 0 
0 0 0 0 0 0 0 0 0 
0 0 0 0 0 0 0 0 0 
0 0 0 0 0 0 0 0 0 
0 0 0 0 0 0 0 0 0 
0 0 0 0 0 0 0 0 0 
0 0 0 0 0 0 0 0 0 
0 0 0 0 0 0 0 0 0 
0 0 0 0 0 0 0 0 0 
0 0 0 0 0 0 0 0 0 
0 0 0 0 0 0 0 0 0 
0 0 0 0 0 0 0 0 0 
0 0 0 0 0 0 0 0 0 
0 0 0 0 0 0 0 0 0 
0 0 0 0 0 0 0 0 0 
0 0 0 0 0 0 0 0 0 
0 0 0 0 0 0 0 0 0 
0 0 0 0 0 0 0 0 0 
0 0 0 0 0 0 0 0 0 
0 0 0 0 0 0 0 0 0 
0 0 0 0 0 0 0 0 0 
0 0 0 0 0 0 0 0 0 
0 0 0 0 0 0 0 0 0 
0 0 0 0 0 0 0 0 0 
0 0 0 0 0 0 0 0 0 
0 0 0 0 0 0 0 0 0 
0 0 0 0 0 0 0 0 0 
0 0 0 0 0 0 0 0 0 
0 0 0 0 0 0 0 0 0 
0 0 0 0 0 0 0 0 0 
0 0 0 0 0 0 0 0 0 
0 0 0 0 0 0 0 0 0 
0 0 0 0 0 0 0 0 0 
0 0 0 0 0 0 0 0 0 
0 0 0 0 0 0 0 0 0 
0 0 0 0 0 0 0 0 0 
0 0 0 0 0 0 0 0 0 
0 0 0 0 0 0 0 0 0 
0 0 0 0 0 0 0 0 0 
0 0 0 0 0 0 0 0 0 
0 0 0 0 0 0 0 0 0 
0 0 0 0 0 0 0 0 0 
0 0 0 0 0 0 0 0 0 
0 0 0 0 0 0 0 0 0 
0 0 0 0 0 0 0 0 0 
0 0 0 0 0 0 0 0 0 
0 0 0 0 0 0 0 0 0 
0 0 0 0 0 0 0 0 0 
0 0 0 0 0 0 0 0 0 
0 0 0 0 0 0 0 0 0 
0 0 0 0 0 0 0 0 0 
0 0 0 0 0 0 0 0 0 
0 0 0 0 0 0 0 0 0 
0 0 0 0 0 0 0 0 0 
0 0 0 0 0 0 0 0 0 
0 0 0 0 0 0 0 0 0 
0 0 0 0 0 0 0 0 0 
0 0 0 0 0 0 0 0 0 
0 0 0 0 0 0 0 0 0 
0 0 0 0 0 0 0 0 0 
0 0 0 0 0 0 0 0 0 
0 0 0 0 0 0 0 0 0 
0 0 0 0 0 0 0 0 0 
0 0 0 0 0 0 0 0 0 
0 0 0 0 0 0 0 0 0 
0 0 0 0 0 0 0 0 0 
0 0 0 0 0 0 0 0 0 
0 0 0 0 0 0 0 0 0 
0 0 0 0 0 0 0 0 0 
0 0 0 0 0 0 0 0 0 
0 0 0 0 0 0 0 0 0 
0 0 0 0 0 0 0 0 0 
0 0 0 0 0 0 0 0 0 
0 0 0 0 0 0 0 0 0 
0 0 0 0 0 0 0 0 0 
0 0 0 0 0 0 0 0 0 
0 0 0 0 0 0 0 0 0 
0 0 0 0 0 0 0 0 0 
0 0 0 0 0 0 0 0 0 
0 0 0 0 0 0 0 0 0 
0 0 0 0 0 0 0 0 0 
0 0 0 0 0 0 0 0 0 
0 0 0 0 0 0 0 0 0 
0 0 0 0 0 0 0 0 0 
0 0 0 0 0 0 0 0 0 
0 0 0 0 0 0 0 0 0 
0 0 0 0 0 0 0 0 0 
0 0 0 0 0 0 0 0 0 
0 0 0 0 0 0 0 0 0 
0 0 0 0 0 0 0 0 0 
0 0 0 0 0 0 0 0 0 
0 0 0 0 0 0 0 0 0 
0 0 0 0 0 0 0 0 0 
0 0 0 0 0 0 0 0 0 
0 0 0 0 0 0 0 0 0 
0 0 0 0 0 0 0 0 0 
0 0 0 0 0 0 0 0 0 
0 0 0 0 0 0 0 0 0 
0 0 0 0 0 0 0 0 0 
0 0 0 0 0 0 0 0 0 
0 0 0 0 0 0 0 0 0 
0 0 0 0 0 0 0 0 0 
0 0 0 0 0 0 0 0 0 
0 0 0 0 0 0 0 0 0 
0 0 0 0 0 0 0 0 0 
0 0 0 0 0 0 0 0 0 
0 0 0 0 0 0 0 0 0 
0 0 0 0 0 0 0 0 0 
0 0 0 0 0 0 0 0 0 
0 0 0 0 0 0 0 0 0 
0 0 0 0 0 0 0 0 0 
0 0 0 0 0 0 0 0 0 
0 0 0 0 0 0 0 0 0 
0 0 0 0 0 0 0 0 0 
0 0 0 0 0 0 0 0 0 
0 0 0 0 0 0 0 0 0 
0 0 0 0 0 0 0 0 0 
0 0 0 0 0 0 0 0 0 
0 0 0 0 0 0 0 0 0 
0 0 0 0 0 0 0 0 0 
0 0 0 0 0 0 0 0 0 
0 0 0 0 0 0 0 0 0 
0 0 0 0 0 0 0 0 0 
0 0 0 0 0 0 0 0 0 
0 0 0 0 0 0 0 0 0 
0 0 0 0 0 0 0 0 0 
0 0 0 0 0 0 0 0 0 
0 0 0 0 0 0 0 0 0 
0 0 0 0 0 0 0 0 0 
0 0 0 0 0 0 0 0 0 
0 0 0 0 0 0 0 0 0 
0 0 0 0 0 0 0 0 0 
0 0 0 0 0 0 0 0 0 
0 0 0 0 0 0 0 0 0 
0 0 0 0 0 0 0 0 0 
0 0 0 0 0 0 0 0 0 
0 0 0 0 0 0 0 0 0 
0 0 0 0 0 0 0 0 0 
0 0 0 0 0 0 0 0 0 
0 0 0 0 0 0 0 0 0 
0 0 0 0 0 0 0 0 0 
0 0 0 0 0 0 0 0 0 
0 0 0 0 0 0 0 0 0 
0 0 0 0 0 0 0 0 0 
0 0 0 0 0 0 0 0 0 
0 0 0 0 0 0 0 0 0 
0 0 0 0 0 0 0 0 0 
0 0 0 0 0 0 0 0 0 
0 0 0 0 0 0 0 0 0 
0 0 0 0 0 0 0 0 0 
0 0 0 0 0 0 0 0 0 
0 0 0 0 0 0 0 0 0 
0 0 0 0 0 0 0 0 0 
0 0 0 0 0 0 0 0 0 
0 0 0 0 0 0 0 0 0 
0 0 0 0 0 0 0 0 0 
0 0 0 0 0 0 0 0 0 
0 0 0 0 0 0 0 0 0 
0 0 0 0 0 0 0 0 0 
0 0 0 0 0 0 0 0 0 
0 0 0 0 0 0 0 0 0 
0 0 0 0 0 0 0 0 0 
0 0 0 0 0 0 0 0 0 
0 0 0 0 0 0 0 0 0 
0 0 0 0 0 0 0 0 0 
0 0 0 0 0 0 0 0 0 
0 0 0 0 0 0 0 0 0 
0 0 0 0 0 0 0 0 0 
0 0 0 0 0 0 0 0 0 
0 0 0 0 0 0 0 0 0 
0 0 0 0 0 0 0 0 0 
0 0 0 0 0 0 0 0 0 
0 0 0 0 0 0 0 0 0 
0 0 0 0 0 0 0 0 0 
0 0 0 0 0 0 0 0 0 
0 0 0 0 0 0 0 0 0 
0 0 0 0 0 0 0 0 0 
0 0 0 0 0 0 0 0 0 
0 0 0 0 0 0 0 0 0 
0 0 0 0 0 0 0 0 0 
0 0 0 0 0 0 0 0 0 
0 0 0 0 0 0 0 0 0 
0 0 0 0 0 0 0 0 0 
0 0 0 0 0 0 0 0 0 
0 0 0 0 0 0 0 0 0 
0 0 0 0 0 0 0 0 0 
0 0 0 0 0 0 0 0 0 
0 0 0 0 0 0 0 0 0 
0 0 0 0 0 0 0 0 0 
0 0 0 0 0 0 0 0 0 
0 0 0 0 0 0 0 0 0 
0 0 0 0 0 0 0 0 0 
0 0 0 0 0 0 0 0 0 
0 0 0 0 0 0 0 0 0 
0 0 0 0 0 0 0 0 0 
0 0 0 0 0 0 0 0 0 
0 0 0 0 0 0 0 0 0 
0 0 0 0 0 0 0 0 0 
0 0 0 0 0 0 0 0 0 
0 0 0 0 0 0 0 0 0 
0 0 0 0 0 0 0 0 0 
0 0 0 0 0 0 0 0 0 
0 0 0 0 0 0 0 0 0 
0 0 0 0 0 0 0 0 0 
0 0 0 0 0 0 0 0 0 
0 0 0 0 0 0 0 0 0 
0 0 0 0 0 0 0 0 0 
0 0 0 0 0 0 0 0 0 
0 0 0 0 0 0 0 0 0 
0 0 0 0 0 0 0 0 0 
0 0 0 0 0 0 0 0 0 
0 0 0 0 0 0 0 0 0 
0 0 0 0 0 0 0 0 0 
0 0 0 0 0 0 0 0 0 
0 0 0 0 0 0 0 0 0 
0 0 0 0 0 0 0 0 0 
0 0 0 0 0 0 0 0 0 
0 0 0 0 0 0 0 0 0 
0 0 0 0 0 0 0 0 0 
0 0 0 0 0 0 0 0 0 
0 0 0 0 0 0 0 0 0 
0 0 0 0 0 0 0 0 0 
0 0 0 0 0 0 0 0 0 
0 0 0 0 0 0 0 0 0 
0 0 0 0 0 0 0 0 0 
0 0 0 0 0 0 0 0 0 
0 0 0 0 0 0 0 0 0 
0 0 0 0 0 0 0 0 0 
0 0 0 0 0 0 0 0 0 
0 0 0 0 0 0 0 0 0 
0 0 0 0 0 0 0 0 0 
0 0 0 0 0 0 0 0 0 
0 0 0 0 0 0 0 0 0 
0 0 0 0 0 0 0 0 0 
0 0 0 0 0 0 0 0 0 
0 0 0 0 0 0 0 0 0 
0 0 0 0 0 0 0 0 0 
0 0 0 0 0 0 0 0 0 
0 0 0 0 0 0 0 0 0 
0 0 0 0 0 0 0 0 0 
0 0 0 0 0 0 0 0 0 
0 0 0 0 0 0 0 0 0 
0 0 0 0 0 0 0 0 0 
0 0 0 0 0 0 0 0 0 
0 0 0 0 0 0 0 0 0 
0 0 0 0 0 0 0 0 0 
0 0 0 0 0 0 0 0 0 
0 0 0 0 0 0 0 0 0 
0 0 0 0 0 0 0 0 0 
0 0 0 0 0 0 0 0 0 
0 0 0 0 0 0 0 0 0 
0 0 0 0 0 0 0 0 0 
0 0 0 0 0 0 0 0 0 
0 0 0 0 0 0 0 0 0 
0 0 0 0 0 0 0 0 0 
0 0 0 0 0 0 0 0 0 
0 0 0 0 0 0 0 0 0 
0 0 0 0 0 0 0 0 0 
0 0 0 0 0 0 0 0 0 
0 0 0 0 0 0 0 0 0 
0 0 0 0 0 0 0 0 0 
0 0 0 0 0 0 0 0 0 
0 0 0 0 0 0 0 0 0 
0 0 0 0 0 0 0 0 0 
0 0 0 0 0 0 0 0 0 
0 0 0 0 0 0 0 0 0 
0 0 0 0 0 0 0 0 0 
0 0 0 0 0 0 0 0 0 
0 0 0 0 0 0 0 0 0 
0 0 0 0 0 0 0 0 0 
0 0 0 0 0 0 0 0 0 
0 0 0 0 0 0 0 0 0 
0 0 0 0 0 0 0 0 0 
0 0 0 0 0 0 0 0 0 
0 0 0 0 0 0 0 0 0 
0 0 0 0 0 0 0 0 0 
0 0 0 0 0 0 0 0 0 
0 0 0 0 0 0 0 0 0 
0 0 0 0 0 0 0 0 0 
0 0 0 0 0 0 0 0 0 
0 0 0 0 0 0 0 0 0 
0 0 0 0 0 0 0 0 0 
0 0 0 0 0 0 0 0 0 
0 0 0 0 0 0 0 0 0 
0 0 0 0 0 0 0 0 0 
0 0 0 0 0 0 0 0 0 
0 0 0 0 0 0 0 0 0 
0 0 0 0 0 0 0 0 0 
0 0 0 0 0 0 0 0 0 
0 0 0 0 0 0 0 0 0 
0 0 0 0 0 0 0 0 0 
0 0 0 0 0 0 0 0 0 
0 0 0 0 0 0 0 0 0 
0 0 0 0 0 0 0 0 0 
0 0 0 0 0 0 0 0 0 
0 0 0 0 0 0 0 0 0 
0 0 0 0 0 0 0 0 0 
0 0 0 0 0 0 0 0 0 
0 0 0 0 0 0 0 0 0 
0 0 0 0 0 0 0 0 0 
0 0 0 0 0 0 0 0 0 
0 0 0 0 0 0 0 0 0 
0 0 0 0 0 0 0 0 0 
0 0 0 0 0 0 0 0 0 
0 0 0 0 0 0 0 0 0 
0 0 0 0 0 0 0 0 0 
0 0 0 0 0 0 0 0 0 
0 0 0 0 0 0 0 0 0 
0 0 0 0 0 0 0 0 0 
0 0 0 0 0 0 0 0 0 
0 0 0 0 0 0 0 0 0 
0 0 0 0 0 0 0 0 0 
0 0 0 0 0 0 0 0 0 
0 0 0 0 0 0 0 0 0 
0 0 0 0 0 0 0 0 0 
0 0 0 0 0 0 0 0 0 
0 0 0 0 0 0 0 0 0 
0 0 0 0 0 0 0 0 0 
0 0 0 0 0 0 0 0 0 
0 0 0 0 0 0 0 0 0 
0 0 0 0 0 0 0 0 0 
0 0 0 0 0 0 0 0 0 
0 0 0 0 0 0 0 0 0 
0 0 0 0 0 0 0 0 0 
0 0 0 0 0 0 0 0 0 
0 0 0 0 0 0 0 0 0 
0 0 0 0 0 0 0 0 0 
0 0 0 0 0 0 0 0 0 
0 0 0 0 0 0 0 0 0 
0 0 0 0 0 0 0 0 0 
0 0 0 0 0 0 0 0 0 
0 0 0 0 0 0 0 0 0 
0 0 0 0 0 0 0 0 0 
0 0 0 0 0 0 0 0 0 
0 0 0 0 0 0 0 0 0 
0 0 0 0 0 0 0 0 0 
0 0 0 0 0 0 0 0 0 
0 0 0 0 0 0 0 0 0 
0 0 0 0 0 0 0 0 0 
0 0 0 0 0 0 0 0 0 
0 0 0 0 0 0 0 0 0 
0 0 0 0 0 0 0 0 0 
0 0 0 0 0 0 0 0 0 
0 0 0 0 0 0 0 0 0 
0 0 0 0 0 0 0 0 0 
0 0 0 0 0 0 0 0 0 
0 0 0 0 0 0 0 0 0 
0 0 0 0 0 0 0 0 0 
0 0 0 0 0 0 0 0 0 
0 0 0 0 0 0 0 0 0 
0 0 0 0 0 0 0 0 0 
0 0 0 0 0 0 0 0 0 
0 0 0 0 0 0 0 0 0 
0 0 0 0 0 0 0 0 0 
0 0 0 0 0 0 0 0 0 
0 0 0 0 0 0 0 0 0 
0 0 0 0 0 0 0 0 0 
0 0 0 0 0 0 0 0 0 
0 0 0 0 0 0 0 0 0 
0 0 0 0 0 0 0 0 0 
0 0 0 0 0 0 0 0 0 
0 0 0 0 0 0 0 0 0 
0 0 0 0 0 0 0 0 0 
0 0 0 0 0 0 0 0 0 
0 0 0 0 0 0 0 0 0 
0 0 0 0 0 0 0 0 0 
0 0 0 0 0 0 0 0 0 
0 0 0 0 0 0 0 0 0 
0 0 0 0 0 0 0 0 0 
0 0 0 0 0 0 0 0 0 
0 0 0 0 0 0 0 0 0 
0 0 0 0 0 0 0 0 0 
0 0 0 0 0 0 0 0 0 
0 0 0 0 0 0 0 0 0 
0 0 0 0 0 0 0 0 0 
0 0 0 0 0 0 0 0 0 
0 0 0 0 0 0 0 0 0 
0 0 0 0 0 0 0 0 0 
0 0 0 0 0 0 0 0 0 
0 0 0 0 0 0 0 0 0 
0 0 0 0 0 0 0 0 0 
0 0 0 0 0 0 0 0 0 
0 0 0 0 0 0 0 0 0 
0 0 0 0 0 0 0 0 0 
0 0 0 0 0 0 0 0 0 
0 0 0 0 0 0 0 0 0 
0 0 0 0 0 0 0 0 0 
0 0 0 0 0 0 0 0 0 
0 0 0 0 0 0 0 0 0 
0 0 0 0 0 0 0 0 0 
0 0 0 0 0 0 0 0 0 
0 0 0 0 0 0 0 0 0 
0 0 0 0 0 0 0 0 0 
0 0 0 0 0 0 0 0 0 
0 0 0 0 0 0 0 0 0 
0 0 0 0 0 0 0 0 0 
0 0 0 0 0 0 0 0 0 
0 0 0 0 0 0 0 0 0 
0 0 0 0 0 0 0 0 0 
0 0 0 0 0 0 0 0 0 
0 0 0 0 0 0 0 0 0 
0 0 0 0 0 0 0 0 0 
0 0 0 0 0 0 0 0 0 
0 0 0 0 0 0 0 0 0 
0 0 0 0 0 0 0 0 0 
0 0 0 0 0 0 0 0 0 
0 0 0 0 0 0 0 0 0 
0 0 0 0 0 0 0 0 0 
0 0 0 0 0 0 0 0 0 
0 0 0 0 0 0 0 0 0 
0 0 0 0 0 0 0 0 0 
0 0 0 0 0 0 0 0 0 
0 0 0 0 0 0 0 0 0 
0 0 0 0 0 0 0 0 0 
0 0 0 0 0 0 0 0 0 
0 0 0 0 0 0 0 0 0 
0 0 0 0 0 0 0 0 0 
0 0 0 0 0 0 0 0 0 
0 0 0 0 0 0 0 0 0 
0 0 0 0 0 0 0 0 0 
0 0 0 0 0 0 0 0 0 
0 0 0 0 0 0 0 0 0 
0 0 0 0 0 0 0 0 0 
0 0 0 0 0 0 0 0 0 
0 0 0 0 0 0 0 0 0 
0 0 0 0 0 0 0 0 0 
0 0 0 0 0 0 0 0 0 
0 0 0 0 0 0 0 0 0 
0 0 0 0 0 0 0 0 0 
0 0 0 0 0 0 0 0 0 
0 0 0 0 0 0 0 0 0 
0 0 0 0 0 0 0 0 0 
0 0 0 0 0 0 0 0 0 
0 0 0 0 0 0 0 0 0 
0 0 0 0 0 0 0 0 0 
0 0 0 0 0 0 0 0 0 
0 0 0 0 0 0 0 0 0 
0 0 0 0 0 0 0 0 0 
0 0 0 0 0 0 0 0 0 
0 0 0 0 0 0 0 0 0 
0 0 0 0 0 0 0 0 0 
0 0 0 0 0 0 0 0 0 
0 0 0 0 0 0 0 0 0 
0 0 0 0 0 0 0 0 0 
0 0 0 0 0 0 0 0 0 
0 0 0 0 0 0 0 0 0 
0 0 0 0 0 0 0 0 0 
0 0 0 0 0 0 0 0 0 
0 0 0 0 0 0 0 0 0 
0 0 0 0 0 0 0 0 0 
0 0 0 0 0 0 0 0 0 
0 0 0 0 0 0 0 0 0 
0 0 0 0 0 0 0 0 0 
0 0 0 0 0 0 0 0 0 
0 0 0 0 0 0 0 0 0 
0 0 0 0 0 0 0 0 0 
0 0 0 0 0 0 0 0 0 
0 0 0 0 0 0 0 0 0 
0 0 0 0 0 0 0 0 0 
0 0 0 0 0 0 0 0 0 
0 0 0 0 0 0 0 0 0 
0 0 0 0 0 0 0 0 0 
0 0 0 0 0 0 0 0 0 
0 0 0 0 0 0 0 0 0 
0 0 0 0 0 0 0 0 0 
0 0 0 0 0 0 0 0 0 
0 0 0 0 0 0 0 0 0 
0 0 0 0 0 0 0 0 0 
0 0 0 0 0 0 0 0 0 
0 0 0 0 0 0 0 0 0 
0 0 0 0 0 0 0 0 0 
0 0 0 0 0 0 0 0 0 
0 0 0 0 0 0 0 0 0 
0 0 0 0 0 0 0 0 0 
0 0 0 0 0 0 0 0 0 
0 0 0 0 0 0 0 0 0 
0 0 0 0 0 0 0 0 0 
0 0 0 0 0 0 0 0 0 
0 0 0 0 0 0 0 0 0 
0 0 0 0 0 0 0 0 0 
0 0 0 0 0 0 0 0 0 
0 0 0 0 0 0 0 0 0 
0 0 0 0 0 0 0 0 0 
0 0 0 0 0 0 0 0 0 
0 0 0 0 0 0 0 0 0 
0 0 0 0 0 0 0 0 0 
0 0 0 0 0 0 0 0 0 
0 0 0 0 0 0 0 0 0 
0 0 0 0 0 0 0 0 0 
0 0 0 0 0 0 0 0 0 
0 0 0 0 0 0 0 0 0 
0 0 0 0 0 0 0 0 0 
0 0 0 0 0 0 0 0 0 
0 0 0 0 0 0 0 0 0 
0 0 0 0 0 0 0 0 0 
0 0 0 0 0 0 0 0 0 
0 0 0 0 0 0 0 0 0 
0 0 0 0 0 0 0 0 0 
0 0 0 0 0 0 0 0 0 
0 0 0 0 0 0 0 0 0 
0 0 0 0 0 0 0 0 0 
0 0 0 0 0 0 0 0 0 
0 0 0 0 0 0 0 0 0 
0 0 0 0 0 0 0 0 0 
0 0 0 0 0 0 0 0 0 
0 0 0 0 0 0 0 0 0 
0 0 0 0 0 0 0 0 0 
0 0 0 0 0 0 0 0 0 
0 0 0 0 0 0 0 0 0 
0 0 0 0 0 0 0 0 0 
0 0 0 0 0 0 0 0 0 
0 0 0 0 0 0 0 0 0 
0 0 0 0 0 0 0 0 0 
0 0 0 0 0 0 0 0 0 
0 0 0 0 0 0 0 0 0 
0 0 0 0 0 0 0 0 0 
0 0 0 0 0 0 0 0 0 
0 0 0 0 0 0 0 0 0 
0 0 0 0 0 0 0 0 0 
0 0 0 0 0 0 0 0 0 
0 0 0 0 0 0 0 0 0 
0 0 0 0 0 0 0 0 0 
0 0 0 0 0 0 0 0 0 
0 0 0 0 0 0 0 0 0 
0 0 0 0 0 0 0 0 0 
0 0 0 0 0 0 0 0 0 
0 0 0 0 0 0 0 0 0 
0 0 0 0 0 0 0 0 0 
0 0 0 0 0 0 0 0 0 
0 0 0 0 0 0 0 0 0 
0 0 0 0 0 0 0 0 0 
0 0 0 0 0 0 0 0 0 
0 0 0 0 0 0 0 0 0 
0 0 0 0 0 0 0 0 0 
0 0 0 0 0 0 0 0 0 
0 0 0 0 0 0 0 0 0 
0 0 0 0 0 0 0 0 0 
0 0 0 0 0 0 0 0 0 
0 0 0 0 0 0 0 0 0 
0 0 0 0 0 0 0 0 0 
0 0 0 0 0 0 0 0 0 
0 0 0 0 0 0 0 0 0 
0 0 0 0 0 0 0 0 0 
0 0 0 0 0 0 0 0 0 
0 0 0 0 0 0 0 0 0 
0 0 0 0 0 0 0 0 0 
0 0 0 0 0 0 0 0 0 
0 0 0 0 0 0 0 0 0 
0 0 0 0 0 0 0 0 0 
0 0 0 0 0 0 0 0 0 
0 0 0 0 0 0 0 0 0 
0 0 0 0 0 0 0 0 0 
0 0 0 0 0 0 0 0 0 
0 0 0 0 0 0 0 0 0 
0 0 0 0 0 0 0 0 0 
0 0 0 0 0 0 0 0 0 
0 0 0 0 0 0 0 0 0 
0 0 0 0 0 0 0 0 0 
0 0 0 0 0 0 0 0 0 
0 0 0 0 0 0 0 0 0 
0 0 0 0 0 0 0 0 0 
0 0 0 0 0 0 0 0 0 
0 0 0 0 0 0 0 0 0 
0 0 0 0 0 0 0 0 0 
0 0 0 0 0 0 0 0 0 
0 0 0 0 0 0 0 0 0 
0 0 0 0 0 0 0 0 0 
0 0 0 0 0 0 0 0 0 
0 0 0 0 0 0 0 0 0 
0 0 0 0 0 0 0 0 0 
0 0 0 0 0 0 0 0 0 
0 0 0 0 0 0 0 0 0 
0 0 0 0 0 0 0 0 0 
0 0 0 0 0 0 0 0 0 
0 0 0 0 0 0 0 0 0 
0 0 0 0 0 0 0 0 0 
0 0 0 0 0 0 0 0 0 
0 0 0 0 0 0 0 0 0 
0 0 0 0 0 0 0 0 0 
0 0 0 0 0 0 0 0 0 
0 0 0 0 0 0 0 0 0 
0 0 0 0 0 0 0 0 0 
0 0 0 0 0 0 0 0 0 
0 0 0 0 0 0 0 0 0 
0 0 0 0 0 0 0 0 0 
0 0 0 0 0 0 0 0 0 
0 0 0 0 0 0 0 0 0 
0 0 0 0 0 0 0 0 0 
0 0 0 0 0 0 0 0 0 
0 0 0 0 0 0 0 0 0 
0 0 0 0 0 0 0 0 0 
0 0 0 0 0 0 0 0 0 
0 0 0 0 0 0 0 0 0 
0 0 0 0 0 0 0 0 0 
0 0 0 0 0 0 0 0 0 
0 0 0 0 0 0 0 0 0 
0 0 0 0 0 0 0 0 0 
0 0 0 0 0 0 0 0 0 
0 0 0 0 0 0 0 0 0 
0 0 0 0 0 0 0 0 0 
0 0 0 0 0 0 0 0 0 
0 0 0 0 0 0 0 0 0 
0 0 0 0 0 0 0 0 0 
0 0 0 0 0 0 0 0 0 
0 0 0 0 0 0 0 0 0 
0 0 0 0 0 0 0 0 0 
0 0 0 0 0 0 0 0 0 
0 0 0 0 0 0 0 0 0 
0 0 0 0 0 0 0 0 0 
0 0 0 0 0 0 0 0 0 
0 0 0 0 0 0 0 0 0 
0 0 0 0 0 0 0 0 0 
0 0 0 0 0 0 0 0 0 
0 0 0 0 0 0 0 0 0 
0 0 0 0 0 0 0 0 0 
0 0 0 0 0 0 0 0 0 
0 0 0 0 0 0 0 0 0 
0 0 0 0 0 0 0 0 0 
0 0 0 0 0 0 0 0 0 
0 0 0 0 0 0 0 0 0 
0 0 0 0 0 0 0 0 0 
0 0 0 0 0 0 0 0 0 
0 0 0 0 0 0 0 0 0 
0 0 0 0 0 0 0 0 0 
0 0 0 0 0 0 0 0 0 
0 0 0 0 0 0 0 0 0 
0 0 0 0 0 0 0 0 0 
0 0 0 0 0 0 0 0 0 
0 0 0 0 0 0 0 0 0 
0 0 0 0 0 0 0 0 0 
0 0 0 0 0 0 0 0 0 
0 0 0 0 0 0 0 0 0 
0 0 0 0 0 0 0 0 0 
0 0 0 0 0 0 0 0 0 
0 0 0 0 0 0 0 0 0 
0 0 0 0 0 0 0 0 0 
0 0 0 0 0 0 0 0 0 
0 0 0 0 0 0 0 0 0 
0 0 0 0 0 0 0 0 0 
0 0 0 0 0 0 0 0 0 
0 0 0 0 0 0 0 0 0 
0 0 0 0 0 0 0 0 0 
0 0 0 0 0 0 0 0 0 
0 0 0 0 0 0 0 0 0 
0 0 0 0 0 0 0 0 0 
0 0 0 0 0 0 0 0 0 
0 0 0 0 0 0 0 0 0 
0 0 0 0 0 0 0 0 0 
0 0 0 0 0 0 0 0 0 
0 0 0 0 0 0 0 0 0 
0 0 0 0 0 0 0 0 0 
0 0 0 0 0 0 0 0 0 
0 0 0 0 0 0 0 0 0 
0 0 0 0 0 0 0 0 0 
0 0 0 0 0 0 0 0 0 
0 0 0 0 0 0 0 0 0 
0 0 0 0 0 0 0 0 0 
0 0 0 0 0 0 0 0 0 
0 0 0 0 0 0 0 0 0 
0 0 0 0 0 0 0 0 0 
0 0 0 0 0 0 0 0 0 
0 0 0 0 0 0 0 0 0 
0 0 0 0 0 0 0 0 0 
0 0 0 0 0 0 0 0 0 
0 0 0 0 0 0 0 0 0 
0 0 0 0 0 0 0 0 0 
0 0 0 0 0 0 0 0 0 
0 0 0 0 0 0 0 0 0 
0 0 0 0 0 0 0 0 0 
0 0 0 0 0 0 0 0 0 
0 0 0 0 0 0 0 0 0 
0 0 0 0 0 0 0 0 0 
0 0 0 0 0 0 0 0 0 
0 0 0 0 0 0 0 0 0 
0 0 0 0 0 0 0 0 0 
0 0 0 0 0 0 0 0 0 
0 0 0 0 0 0 0 0 0 
0 0 0 0 0 0 0 0 0 
0 0 0 0 0 0 0 0 0 
0 0 0 0 0 0 0 0 0 
0 0 0 0 0 0 0 0 0 
0 0 0 0 0 0 0 0 0 
0 0 0 0 0 0 0 0 0 
0 0 0 0 0 0 0 0 0 
0 0 0 0 0 0 0 0 0 
0 0 0 0 0 0 0 0 0 
0 0 0 0 0 0 0 0 0 
0 0 0 0 0 0 0 0 0 
0 0 0 0 0 0 0 0 0 
0 0 0 0 0 0 0 0 0 
0 0 0 0 0 0 0 0 0 
0 0 0 0 0 0 0 0 0 
0 0 0 0 0 0 0 0 0 
0 0 0 0 0 0 0 0 0 
0 0 0 0 0 0 0 0 0 
0 0 0 0 0 0 0 0 0 
0 0 0 0 0 0 0 0 0 
0 0 0 0 0 0 0 0 0 
0 0 0 0 0 0 0 0 0 
0 0 0 0 0 0 0 0 0 
0 0 0 0 0 0 0 0 0 
0 0 0 0 0 0 0 0 0 
0 0 0 0 0 0 0 0 0 
0 0 0 0 0 0 0 0 0 
0 0 0 0 0 0 0 0 0 
0 0 0 0 0 0 0 0 0 
0 0 0 0 0 0 0 0 0 
0 0 0 0 0 0 0 0 0 
0 0 0 0 0 0 0 0 0 
0 0 0 0 0 0 0 0 0 
0 0 0 0 0 0 0 0 0 
0 0 0 0 0 0 0 0 0 
0 0 0 0 0 0 0 0 0 
0 0 0 0 0 0 0 0 0 
0 0 0 0 0 0 0 0 0 
0 0 0 0 0 0 0 0 0 
0 0 0 0 0 0 0 0 0 
0 0 0 0 0 0 0 0 0 
0 0 0 0 0 0 0 0 0 
0 0 0 0 0 0 0 0 0 
0 0 0 0 0 0 0 0 0 
0 0 0 0 0 0 0 0 0 
0 0 0 0 0 0 0 0 0 
0 0 0 0 0 0 0 0 0 
0 0 0 0 0 0 0 0 0 
0 0 0 0 0 0 0 0 0 
0 0 0 0 0 0 0 0 0 
0 0 0 0 0 0 0 0 0 
0 0 0 0 0 0 0 0 0 
0 0 0 0 0 0 0 0 0 
0 0 0 0 0 0 0 0 0 
0 0 0 0 0 0 0 0 0 
0 0 0 0 0 0 0 0 0 
0 0 0 0 0 0 0 0 0 
0 0 0 0 0 0 0 0 0 
0 0 0 0 0 0 0 0 0 
0 0 0 0 0 0 0 0 0 
0 0 0 0 0 0 0 0 0 
0 0 0 0 0 0 0 0 0 
0 0 0 0 0 0 0 0 0 
0 0 0 0 0 0 0 0 0 
0 0 0 0 0 0 0 0 0 
0 0 0 0 0 0 0 0 0 
0 0 0 0 0 0 0 0 0 
0 0 0 0 0 0 0 0 0 
0 0 0 0 0 0 0 0 0 
0 0 0 0 0 0 0 0 0 
0 0 0 0 0 0 0 0 0 
0 0 0 0 0 0 0 0 0 
0 0 0 0 0 0 0 0 0 
0 0 0 0 0 0 0 0 0 
0 0 0 0 0 0 0 0 0 
0 0 0 0 0 0 0 0 0 
0 0 0 0 0 0 0 0 0 
0 0 0 0 0 0 0 0 0 
0 0 0 0 0 0 0 0 0 
0 0 0 0 0 0 0 0 0 
0 0 0 0 0 0 0 0 0 
0 0 0 0 0 0 0 0 0 
0 0 0 0 0 0 0 0 0 
0 0 0 0 0 0 0 0 0 
0 0 0 0 0 0 0 0 0 
0 0 0 0 0 0 0 0 0 
0 0 0 0 0 0 0 0 0 
0 0 0 0 0 0 0 0 0 
0 0 0 0 0 0 0 0 0 
0 0 0 0 0 0 0 0 0 
0 0 0 0 0 0 0 0 0 
0 0 0 0 0 0 0 0 0 
0 0 0 0 0 0 0 0 0 
0 0 0 0 0 0 0 0 0 
0 0 0 0 0 0 0 0 0 
0 0 0 0 0 0 0 0 0 
0 0 0 0 0 0 0 0 0 
0 0 0 0 0 0 0 0 0 
0 0 0 0 0 0 0 0 0 
0 0 0 0 0 0 0 0 0 
0 0 0 0 0 0 0 0 0 
0 0 0 0 0 0 0 0 0 
0 0 0 0 0 0 0 0 0 
0 0 0 0 0 0 0 0 0 
0 0 0 0 0 0 0 0 0 
0 0 0 0 0 0 0 0 0 
0 0 0 0 0 0 0 0 0 
0 0 0 0 0 0 0 0 0 
0 0 0 0 0 0 0 0 0 
0 0 0 0 0 0 0 0 0 
0 0 0 0 0 0 0 0 0 
0 0 0 0 0 0 0 0 0 
0 0 0 0 0 0 0 0 0 
0 0 0 0 0 0 0 0 0 
0 0 0 0 0 0 0 0 0 
0 0 0 0 0 0 0 0 0 
0 0 0 0 0 0 0 0 0 
0 0 0 0 0 0 0 0 0 
0 0 0 0 0 0 0 0 0 
0 0 0 0 0 0 0 0 0 
0 0 0 0 0 0 0 0 0 
0 0 0 0 0 0 0 0 0 
0 0 0 0 0 0 0 0 0 
0 0 0 0 0 0 0 0 0 
0 0 0 0 0 0 0 0 0 
0 0 0 0 0 0 0 0 0 
0 0 0 0 0 0 0 0 0 
0 0 0 0 0 0 0 0 0 
0 0 0 0 0 0 0 0 0 
0 0 0 0 0 0 0 0 0 
0 0 0 0 0 0 0 0 0 
0 0 0 0 0 0 0 0 0 
0 0 0 0 0 0 0 0 0 
0 0 0 0 0 0 0 0 0 
0 0 0 0 0 0 0 0 0 
0 0 0 0 0 0 0 0 0 
0 0 0 0 0 0 0 0 0 
0 0 0 0 0 0 0 0 0 
0 0 0 0 0 0 0 0 0 
0 0 0 0 0 0 0 0 0 
0 0 0 0 0 0 0 0 0 
0 0 0 0 0 0 0 0 0 
0 0 0 0 0 0 0 0 0 
0 0 0 0 0 0 0 0 0 
0 0 0 0 0 0 0 0 0 
0 0 0 0 0 0 0 0 0 
0 0 0 0 0 0 0 0 0 
0 0 0 0 0 0 0 0 0 
0 0 0 0 0 0 0 0 0 
0 0 0 0 0 0 0 0 0 
0 0 0 0 0 0 0 0 0 
0 0 0 0 0 0 0 0 0 
0 0 0 0 0 0 0 0 0 
0 0 0 0 0 0 0 0 0 
0 0 0 0 0 0 0 0 0 
0 0 0 0 0 0 0 0 0 
0 0 0 0 0 0 0 0 0 
0 0 0 0 0 0 0 0 0 
0 0 0 0 0 0 0 0 0 
0 0 0 0 0 0 0 0 0 
0 0 0 0 0 0 0 0 0 
0 0 0 0 0 0 0 0 0 
0 0 0 0 0 0 0 0 0 
0 0 0 0 0 0 0 0 0 
0 0 0 0 0 0 0 0 0 
0 0 0 0 0 0 0 0 0 
0 0 0 0 0 0 0 0 0 
0 0 0 0 0 0 0 0 0 
0 0 0 0 0 0 0 0 0 
0 0 0 0 0 0 0 0 0 
0 0 0 0 0 0 0 0 0 
0 0 0 0 0 0 0 0 0 
0 0 0 0 0 0 0 0 0 
0 0 0 0 0 0 0 0 0 
0 0 0 0 0 0 0 0 0 
0 0 0 0 0 0 0 0 0 
0 0 0 0 0 0 0 0 0 
0 0 0 0 0 0 0 0 0 
0 0 0 0 0 0 0 0 0 
0 0 0 0 0 0 0 0 0 
0 0 0 0 0 0 0 0 0 
0 0 0 0 0 0 0 0 0 
0 0 0 0 0 0 0 0 0 
0 0 0 0 0 0 0 0 0 
0 0 0 0 0 0 0 0 0 
0 0 0 0 0 0 0 0 0 
0 0 0 0 0 0 0 0 0 
0 0 0 0 0 0 0 0 0 
0 0 0 0 0 0 0 0 0 
0 0 0 0 0 0 0 0 0 
0 0 0 0 0 0 0 0 0 
0 0 0 0 0 0 0 0 0 
0 0 0 0 0 0 0 0 0 
0 0 0 0 0 0 0 0 0 
0 0 0 0 0 0 0 0 0 
0 0 0 0 0 0 0 0 0 
0 0 0 0 0 0 0 0 0 
0 0 0 0 0 0 0 0 0 
0 0 0 0 0 0 0 0 0 
0 0 0 0 0 0 0 0 0 
0 0 0 0 0 0 0 0 0 
0 0 0 0 0 0 0 0 0 
0 0 0 0 0 0 0 0 0 
0 0 0 0 0 0 0 0 0 
0 0 0 0 0 0 0 0 0 
0 0 0 0 0 0 0 0 0 
0 0 0 0 0 0 0 0 0 
0 0 0 0 0 0 0 0 0 
0 0 0 0 0 0 0 0 0 
0 0 0 0 0 0 0 0 0 
0 0 0 0 0 0 0 0 0 
0 0 0 0 0 0 0 0 0 
0 0 0 0 0 0 0 0 0 
0 0 0 0 0 0 0 0 0 
0 0 0 0 0 0 0 0 0 
0 0 0 0 0 0 0 0 0 
0 0 0 0 0 0 0 0 0 
0 0 0 0 0 0 0 0 0 
0 0 0 0 0 0 0 0 0 
0 0 0 0 0 0 0 0 0 
0 0 0 0 0 0 0 0 0 
0 0 0 0 0 0 0 0 0 
0 0 0 0 0 0 0 0 0 
0 0 0 0 0 0 0 0 0 
0 0 0 0 0 0 0 0 0 
0 0 0 0 0 0 0 0 0 
0 0 0 0 0 0 0 0 0 
0 0 0 0 0 0 0 0 0 
0 0 0 0 0 0 0 0 0 
0 0 0 0 0 0 0 0 0 
0 0 0 0 0 0 0 0 0 
0 0 0 0 0 0 0 0 0 
0 0 0 0 0 0 0 0 0 
0 0 0 0 0 0 0 0 0 
0 0 0 0 0 0 0 0 0 
0 0 0 0 0 0 0 0 0 
0 0 0 0 0 0 0 0 0 
0 0 0 0 0 0 0 0 0 
0 0 0 0 0 0 0 0 0 
0 0 0 0 0 0 0 0 0 
0 0 0 0 0 0 0 0 0 
0 0 0 0 0 0 0 0 0 
0 0 0 0 0 0 0 0 0 
0 0 0 0 0 0 0 0 0 
0 0 0 0 0 0 0 0 0 
0 0 0 0 0 0 0 0 0 
0 0 0 0 0 0 0 0 0 
0 0 0 0 0 0 0 0 0 
0 0 0 0 0 0 0 0 0 
0 0 0 0 0 0 0 0 0 
0 0 0 0 0 0 0 0 0 
0 0 0 0 0 0 0 0 0 
0 0 0 0 0 0 0 0 0 
0 0 0 0 0 0 0 0 0 
0 0 0 0 0 0 0 0 0 
0 0 0 0 0 0 0 0 0 
0 0 0 0 0 0 0 0 0 
0 0 0 0 0 0 0 0 0 
0 0 0 0 0 0 0 0 0 
0 0 0 0 0 0 0 0 0 
0 0 0 0 0 0 0 0 0 
0 0 0 0 0 0 0 0 0 
0 0 0 0 0 0 0 0 0 
0 0 0 0 0 0 0 0 0 
0 0 0 0 0 0 0 0 0 
0 0 0 0 0 0 0 0 0 
0 0 0 0 0 0 0 0 0 
0 0 0 0 0 0 0 0 0 
0 0 0 0 0 0 0 0 0 
0 0 0 0 0 0 0 0 0 
0 0 0 0 0 0 0 0 0 
0 0 0 0 0 0 0 0 0 
0 0 0 0 0 0 0 0 0 
0 0 0 0 0 0 0 0 0 
0 0 0 0 0 0 0 0 0 
0 0 0 0 0 0 0 0 0 
0 0 0 0 0 0 0 0 0 
0 0 0 0 0 0 0 0 0 
0 0 0 0 0 0 0 0 0 
0 0 0 0 0 0 0 0 0 
0 0 0 0 0 0 0 0 0 
0 0 0 0 0 0 0 0 0 
0 0 0 0 0 0 0 0 0 
0 0 0 0 0 0 0 0 0 
0 0 0 0 0 0 0 0 0 
0 0 0 0 0 0 0 0 0 
0 0 0 0 0 0 0 0 0 
0 0 0 0 0 0 0 0 0 
0 0 0 0 0 0 0 0 0 
0 0 0 0 0 0 0 0 0 
0 0 0 0 0 0 0 0 0 
0 0 0 0 0 0 0 0 0 
0 0 0 0 0 0 0 0 0 
0 0 0 0 0 0 0 0 0 
0 0 0 0 0 0 0 0 0 
0 0 0 0 0 0 0 0 0 
0 0 0 0 0 0 0 0 0 
0 0 0 0 0 0 0 0 0 
0 0 0 0 0 0 0 0 0 
0 0 0 0 0 0 0 0 0 
0 0 0 0 0 0 0 0 0 
0 0 0 0 0 0 0 0 0 
0 0 0 0 0 0 0 0 0 
0 0 0 0 0 0 0 0 0 
0 0 0 0 0 0 0 0 0 
0 0 0 0 0 0 0 0 0 
0 0 0 0 0 0 0 0 0 
0 0 0 0 0 0 0 0 0 
0 0 0 0 0 0 0 0 0 
0 0 0 0 0 0 0 0 0 
0 0 0 0 0 0 0 0 0 
0 0 0 0 0 0 0 0 0 
0 0 0 0 0 0 0 0 0 
0 0 0 0 0 0 0 0 0 
0 0 0 0 0 0 0 0 0 
0 0 0 0 0 0 0 0 0 
0 0 0 0 0 0 0 0 0 
0 0 0 0 0 0 0 0 0 
0 0 0 0 0 0 0 0 0 
0 0 0 0 0 0 0 0 0 
0 0 0 0 0 0 0 0 0 
0 0 0 0 0 0 0 0 0 
0 0 0 0 0 0 0 0 0 
0 0 0 0 0 0 0 0 0 
0 0 0 0 0 0 0 0 0 
0 0 0 0 0 0 0 0 0 
0 0 0 0 0 0 0 0 0 
0 0 0 0 0 0 0 0 0 
0 0 0 0 0 0 0 0 0 
0 0 0 0 0 0 0 0 0 
0 0 0 0 0 0 0 0 0 
0 0 0 0 0 0 0 0 0 
0 0 0 0 0 0 0 0 0 
0 0 0 0 0 0 0 0 0 
0 0 0 0 0 0 0 0 0 
0 0 0 0 0 0 0 0 0 
0 0 0 0 0 0 0 0 0 
0 0 0 0 0 0 0 0 0 
0 0 0 0 0 0 0 0 0 
0 0 0 0 0 0 0 0 0 
0 0 0 0 0 0 0 0 0 
0 0 0 0 0 0 0 0 0 
0 0 0 0 0 0 0 0 0 
0 0 0 0 0 0 0 0 0 
0 0 0 0 0 0 0 0 0 
0 0 0 0 0 0 0 0 0 
0 0 0 0 0 0 0 0 0 
0 0 0 0 0 0 0 0 0 
0 0 0 0 0 0 0 0 0 
0 0 0 0 0 0 0 0 0 
0 0 0 0 0 0 0 0 0 
0 0 0 0 0 0 0 0 0 
0 0 0 0 0 0 0 0 0 
0 0 0 0 0 0 0 0 0 
0 0 0 0 0 0 0 0 0 
0 0 0 0 0 0 0 0 0 
0 0 0 0 0 0 0 0 0 
0 0 0 0 0 0 0 0 0 
0 0 0 0 0 0 0 0 0 
0 0 0 0 0 0 0 0 0 
0 0 0 0 0 0 0 0 0 
0 0 0 0 0 0 0 0 0 
0 0 0 0 0 0 0 0 0 
0 0 0 0 0 0 0 0 0 
0 0 0 0 0 0 0 0 0 
0 0 0 0 0 0 0 0 0 
0 0 0 0 0 0 0 0 0 
0 0 0 0 0 0 0 0 0 
0 0 0 0 0 0 0 0 0 
0 0 0 0 0 0 0 0 0 
0 0 0 0 0 0 0 0 0 
0 0 0 0 0 0 0 0 0 
0 0 0 0 0 0 0 0 0 
0 0 0 0 0 0 0 0 0 
0 0 0 0 0 0 0 0 0 
0 0 0 0 0 0 0 0 0 
0 0 0 0 0 0 0 0 0 
0 0 0 0 0 0 0 0 0 
0 0 0 0 0 0 0 0 0 
0 0 0 0 0 0 0 0 0 
0 0 0 0 0 0 0 0 0 
0 0 0 0 0 0 0 0 0 
0 0 0 0 0 0 0 0 0 
0 0 0 0 0 0 0 0 0 
0 0 0 0 0 0 0 0 0 
0 0 0 0 0 0 0 0 0 
0 0 0 0 0 0 0 0 0 
0 0 0 0 0 0 0 0 0 
0 0 0 0 0 0 0 0 0 
0 0 0 0 0 0 0 0 0 
0 0 0 0 0 0 0 0 0 
0 0 0 0 0 0 0 0 0 
0 0 0 0 0 0 0 0 0 
0 0 0 0 0 0 0 0 0 
0 0 0 0 0 0 0 0 0 
0 0 0 0 0 0 0 0 0 
0 0 0 0 0 0 0 0 0 
0 0 0 0 0 0 0 0 0 
0 0 0 0 0 0 0 0 0 
0 0 0 0 0 0 0 0 0 
0 0 0 0 0 0 0 0 0 
0 0 0 0 0 0 0 0 0 
0 0 0 0 0 0 0 0 0 
0 0 0 0 0 0 0 0 0 
0 0 0 0 0 0 0 0 0 
0 0 0 0 0 0 0 0 0 
0 0 0 0 0 0 0 0 0 
0 0 0 0 0 0 0 0 0 
0 0 0 0 0 0 0 0 0 
0 0 0 0 0 0 0 0 0 
0 0 0 0 0 0 0 0 0 
0 0 0 0 0 0 0 0 0 
0 0 0 0 0 0 0 0 0 
0 0 0 0 0 0 0 0 0 
0 0 0 0 0 0 0 0 0 
0 0 0 0 0 0 0 0 0 
0 0 0 0 0 0 0 0 0 
0 0 0 0 0 0 0 0 0 
0 0 0 0 0 0 0 0 0 
0 0 0 0 0 0 0 0 0 
0 0 0 0 0 0 0 0 0 
0 0 0 0 0 0 0 0 0 
0 0 0 0 0 0 0 0 0 
0 0 0 0 0 0 0 0 0 
0 0 0 0 0 0 0 0 0 
0 0 0 0 0 0 0 0 0 
0 0 0 0 0 0 0 0 0 
0 0 0 0 0 0 0 0 0 
0 0 0 0 0 0 0 0 0 
0 0 0 0 0 0 0 0 0 
0 0 0 0 0 0 0 0 0 
0 0 0 0 0 0 0 0 0 
0 0 0 0 0 0 0 0 0 
0 0 0 0 0 0 0 0 0 
0 0 0 0 0 0 0 0 0 
0 0 0 0 0 0 0 0 0 
0 0 0 0 0 0 0 0 0 
0 0 0 0 0 0 0 0 0 
0 0 0 0 0 0 0 0 0 
0 0 0 0 0 0 0 0 0 
0 0 0 0 0 0 0 0 0 
0 0 0 0 0 0 0 0 0 
0 0 0 0 0 0 0 0 0 
0 0 0 0 0 0 0 0 0 
0 0 0 0 0 0 0 0 0 
0 0 0 0 0 0 0 0 0 
0 0 0 0 0 0 0 0 0 
0 0 0 0 0 0 0 0 0 
0 0 0 0 0 0 0 0 0 
0 0 0 0 0 0 0 0 0 
0 0 0 0 0 0 0 0 0 
0 0 0 0 0 0 0 0 0 
0 0 0 0 0 0 0 0 0 
0 0 0 0 0 0 0 0 0 
0 0 0 0 0 0 0 0 0 
0 0 0 0 0 0 0 0 0 
0 0 0 0 0 0 0 0 0 
0 0 0 0 0 0 0 0 0 
0 0 0 0 0 0 0 0 0 
0 0 0 0 0 0 0 0 0 
0 0 0 0 0 0 0 0 0 
0 0 0 0 0 0 0 0 0 
0 0 0 0 0 0 0 0 0 
0 0 0 0 0 0 0 0 0 
0 0 0 0 0 0 0 0 0 
0 0 0 0 0 0 0 0 0 
0 0 0 0 0 0 0 0 0 
0 0 0 0 0 0 0 0 0 
0 0 0 0 0 0 0 0 0 
0 0 0 0 0 0 0 0 0 
0 0 0 0 0 0 0 0 0 
0 0 0 0 0 0 0 0 0 
0 0 0 0 0 0 0 0 0 
0 0 0 0 0 0 0 0 0 
0 0 0 0 0 0 0 0 0 
0 0 0 0 0 0 0 0 0 
0 0 0 0 0 0 0 0 0 
0 0 0 0 0 0 0 0 0 
0 0 0 0 0 0 0 0 0 
0 0 0 0 0 0 0 0 0 
0 0 0 0 0 0 0 0 0 
0 0 0 0 0 0 0 0 0 
0 0 0 0 0 0 0 0 0 
0 0 0 0 0 0 0 0 0 
0 0 0 0 0 0 0 0 0 
0 0 0 0 0 0 0 0 0 
0 0 0 0 0 0 0 0 0 
0 0 0 0 0 0 0 0 0 
0 0 0 0 0 0 0 0 0 
0 0 0 0 0 0 0 0 0 
0 0 0 0 0 0 0 0 0 
0 0 0 0 0 0 0 0 0 
0 0 0 0 0 0 0 0 0 
0 0 0 0 0 0 0 0 0 
0 0 0 0 0 0 0 0 0 
0 0 0 0 0 0 0 0 0 
0 0 0 0 0 0 0 0 0 
0 0 0 0 0 0 0 0 0 
0 0 0 0 0 0 0 0 0 
0 0 0 0 0 0 0 0 0 
0 0 0 0 0 0 0 0 0 
0 0 0 0 0 0 0 0 0 
0 0 0 0 0 0 0 0 0 
0 0 0 0 0 0 0 0 0 
0 0 0 0 0 0 0 0 0 
0 0 0 0 0 0 0 0 0 
0 0 0 0 0 0 0 0 0 
0 0 0 0 0 0 0 0 0 
0 0 0 0 0 0 0 0 0 
0 0 0 0 0 0 0 0 0 
0 0 0 0 0 0 0 0 0 
0 0 0 0 0 0 0 0 0 
0 0 0 0 0 0 0 0 0 
0 0 0 0 0 0 0 0 0 
0 0 0 0 0 0 0 0 0 
0 0 0 0 0 0 0 0 0 
0 0 0 0 0 0 0 0 0 
0 0 0 0 0 0 0 0 0 
0 0 0 0 0 0 0 0 0 
0 0 0 0 0 0 0 0 0 
0 0 0 0 0 0 0 0 0 
0 0 0 0 0 0 0 0 0 
0 0 0 0 0 0 0 0 0 
0 0 0 0 0 0 0 0 0 
0 0 0 0 0 0 0 0 0 
0 0 0 0 0 0 0 0 0 
0 0 0 0 0 0 0 0 0 
0 0 0 0 0 0 0 0 0 
0 0 0 0 0 0 0 0 0 
0 0 0 0 0 0 0 0 0 
0 0 0 0 0 0 0 0 0 
0 0 0 0 0 0 0 0 0 
0 0 0 0 0 0 0 0 0 
0 0 0 0 0 0 0 0 0 
0 0 0 0 0 0 0 0 0 
0 0 0 0 0 0 0 0 0 
0 0 0 0 0 0 0 0 0 
0 0 0 0 0 0 0 0 0 
0 0 0 0 0 0 0 0 0 
0 0 0 0 0 0 0 0 0 
0 0 0 0 0 0 0 0 0 
0 0 0 0 0 0 0 0 0 
0 0 0 0 0 0 0 0 0 
0 0 0 0 0 0 0 0 0 
0 0 0 0 0 0 0 0 0 
0 0 0 0 0 0 0 0 0 
0 0 0 0 0 0 0 0 0 
0 0 0 0 0 0 0 0 0 
0 0 0 0 0 0 0 0 0 
0 0 0 0 0 0 0 0 0 
0 0 0 0 0 0 0 0 0 
0 0 0 0 0 0 0 0 0 
0 0 0 0 0 0 0 0 0 
0 0 0 0 0 0 0 0 0 
0 0 0 0 0 0 0 0 0 
0 0 0 0 0 0 0 0 0 
0 0 0 0 0 0 0 0 0 
0 0 0 0 0 0 0 0 0 
0 0 0 0 0 0 0 0 0 
0 0 0 0 0 0 0 0 0 
0 0 0 0 0 0 0 0 0 
0 0 0 0 0 0 0 0 0 
0 0 0 0 0 0 
